,image_path,Trail,Panel_Size,grain_size,grain_number,Mean_Stress_xx,Std_Stress_xx,Mean_Stress_yy,Std_Stress_yy,Mean_Strain,Std_Strain,Mean_Youngs_modulus,Std_Youngs_modulus
0,300L_GN_2.0_6.0_25_225_trail_1\GS_60.0_GN_25_L_300_Trail_1_orig.png,1,300,60.0,25,3.3156013033996374,0.24677479597435337,49.33800975965586,0.4926145367791093,0.073936,0.0009059271493889562,717.9735709372183,1.4276746579738813
1,300L_GN_2.0_6.0_25_225_trail_1\GS_60.0_GN_25_L_300_Trail_1_mirror.png,1,300,60.0,25,3.3156013033996374,0.24677479597435337,49.33800975965586,0.4926145367791093,0.073936,0.0009059271493889562,717.9735709372183,1.4276746579738813
2,300L_GN_2.0_6.0_25_225_trail_1\GS_60.0_GN_25_L_300_Trail_1_flip.png,1,300,60.0,25,3.3156013033996374,0.24677479597435337,49.33800975965586,0.4926145367791093,0.073936,0.0009059271493889562,717.9735709372183,1.4276746579738813
3,300L_GN_2.0_6.0_25_225_trail_1\GS_60.0_GN_25_L_300_Trail_1_mirror_flip.png,1,300,60.0,25,3.3156013033996374,0.24677479597435337,49.33800975965586,0.4926145367791093,0.073936,0.0009059271493889562,717.9735709372183,1.4276746579738813
4,300L_GN_2.0_6.0_25_225_trail_1\GS_58.835_GN_26_L_300_Trail_1_orig.png,1,300,58.834840541455215,26,3.920867888237943,0.39442797007215247,54.1326967768379,0.46080059312179533,0.08074600000000001,0.0006134036191611487,725.151876381184,1.166855833502488
5,300L_GN_2.0_6.0_25_225_trail_1\GS_58.835_GN_26_L_300_Trail_1_mirror.png,1,300,58.834840541455215,26,3.920867888237943,0.39442797007215247,54.1326967768379,0.46080059312179533,0.08074600000000001,0.0006134036191611487,725.151876381184,1.166855833502488
6,300L_GN_2.0_6.0_25_225_trail_1\GS_58.835_GN_26_L_300_Trail_1_flip.png,1,300,58.834840541455215,26,3.920867888237943,0.39442797007215247,54.1326967768379,0.46080059312179533,0.08074600000000001,0.0006134036191611487,725.151876381184,1.166855833502488
7,300L_GN_2.0_6.0_25_225_trail_1\GS_58.835_GN_26_L_300_Trail_1_mirror_flip.png,1,300,58.834840541455215,26,3.920867888237943,0.39442797007215247,54.1326967768379,0.46080059312179533,0.08074600000000001,0.0006134036191611487,725.151876381184,1.166855833502488
8,300L_GN_2.0_6.0_25_225_trail_1\GS_57.735_GN_27_L_300_Trail_1_orig.png,1,300,57.735026918962575,27,3.365601578737823,0.2724434791260662,55.79981684335354,0.9845578218478207,0.07963400000000001,0.0014417295169344316,742.2933911101525,0.7942484058513494
9,300L_GN_2.0_6.0_25_225_trail_1\GS_57.735_GN_27_L_300_Trail_1_mirror.png,1,300,57.735026918962575,27,3.365601578737823,0.2724434791260662,55.79981684335354,0.9845578218478207,0.07963400000000001,0.0014417295169344316,742.2933911101525,0.7942484058513494
10,300L_GN_2.0_6.0_25_225_trail_1\GS_57.735_GN_27_L_300_Trail_1_flip.png,1,300,57.735026918962575,27,3.365601578737823,0.2724434791260662,55.79981684335354,0.9845578218478207,0.07963400000000001,0.0014417295169344316,742.2933911101525,0.7942484058513494
11,300L_GN_2.0_6.0_25_225_trail_1\GS_57.735_GN_27_L_300_Trail_1_mirror_flip.png,1,300,57.735026918962575,27,3.365601578737823,0.2724434791260662,55.79981684335354,0.9845578218478207,0.07963400000000001,0.0014417295169344316,742.2933911101525,0.7942484058513494
12,300L_GN_2.0_6.0_25_225_trail_1\GS_56.695_GN_28_L_300_Trail_1_orig.png,1,300,56.69467095138408,28,4.221973136320975,0.1074821021535598,52.38179029832297,0.35007171233595996,0.07732800000000002,0.0008399857141642325,718.4695754933443,1.5962526227466578
13,300L_GN_2.0_6.0_25_225_trail_1\GS_56.695_GN_28_L_300_Trail_1_mirror.png,1,300,56.69467095138408,28,4.221973136320975,0.1074821021535598,52.38179029832297,0.35007171233595996,0.07732800000000002,0.0008399857141642325,718.4695754933443,1.5962526227466578
14,300L_GN_2.0_6.0_25_225_trail_1\GS_56.695_GN_28_L_300_Trail_1_flip.png,1,300,56.69467095138408,28,4.221973136320975,0.1074821021535598,52.38179029832297,0.35007171233595996,0.07732800000000002,0.0008399857141642325,718.4695754933443,1.5962526227466578
15,300L_GN_2.0_6.0_25_225_trail_1\GS_56.695_GN_28_L_300_Trail_1_mirror_flip.png,1,300,56.69467095138408,28,4.221973136320975,0.1074821021535598,52.38179029832297,0.35007171233595996,0.07732800000000002,0.0008399857141642325,718.4695754933443,1.5962526227466578
16,300L_GN_2.0_6.0_25_225_trail_1\GS_55.709_GN_29_L_300_Trail_1_orig.png,1,300,55.70860145311556,29,3.139821448675385,0.215157960259422,53.237672531583826,0.7984497618269062,0.07976800000000002,0.0012477243285277414,709.8944692429493,1.4333055706581292
17,300L_GN_2.0_6.0_25_225_trail_1\GS_55.709_GN_29_L_300_Trail_1_mirror.png,1,300,55.70860145311556,29,3.139821448675385,0.215157960259422,53.237672531583826,0.7984497618269062,0.07976800000000002,0.0012477243285277414,709.8944692429493,1.4333055706581292
18,300L_GN_2.0_6.0_25_225_trail_1\GS_55.709_GN_29_L_300_Trail_1_flip.png,1,300,55.70860145311556,29,3.139821448675385,0.215157960259422,53.237672531583826,0.7984497618269062,0.07976800000000002,0.0012477243285277414,709.8944692429493,1.4333055706581292
19,300L_GN_2.0_6.0_25_225_trail_1\GS_55.709_GN_29_L_300_Trail_1_mirror_flip.png,1,300,55.70860145311556,29,3.139821448675385,0.215157960259422,53.237672531583826,0.7984497618269062,0.07976800000000002,0.0012477243285277414,709.8944692429493,1.4333055706581292
20,300L_GN_2.0_6.0_25_225_trail_1\GS_54.772_GN_30_L_300_Trail_1_orig.png,1,300,54.772255750516614,30,4.176536250598911,0.2345216550212978,51.92056574095808,0.8993104737097061,0.077462,0.00138016520750235,730.7572492199581,1.5370286507567528
21,300L_GN_2.0_6.0_25_225_trail_1\GS_54.772_GN_30_L_300_Trail_1_mirror.png,1,300,54.772255750516614,30,4.176536250598911,0.2345216550212978,51.92056574095808,0.8993104737097061,0.077462,0.00138016520750235,730.7572492199581,1.5370286507567528
22,300L_GN_2.0_6.0_25_225_trail_1\GS_54.772_GN_30_L_300_Trail_1_flip.png,1,300,54.772255750516614,30,4.176536250598911,0.2345216550212978,51.92056574095808,0.8993104737097061,0.077462,0.00138016520750235,730.7572492199581,1.5370286507567528
23,300L_GN_2.0_6.0_25_225_trail_1\GS_54.772_GN_30_L_300_Trail_1_mirror_flip.png,1,300,54.772255750516614,30,4.176536250598911,0.2345216550212978,51.92056574095808,0.8993104737097061,0.077462,0.00138016520750235,730.7572492199581,1.5370286507567528
24,300L_GN_2.0_6.0_25_225_trail_1\GS_53.882_GN_31_L_300_Trail_1_orig.png,1,300,53.881590608032475,31,4.2228114266304555,0.4849577139369765,57.59254789657488,0.7125011668316878,0.086918,0.0009287712312512713,719.5927678383632,1.0793106323102948
25,300L_GN_2.0_6.0_25_225_trail_1\GS_53.882_GN_31_L_300_Trail_1_mirror.png,1,300,53.881590608032475,31,4.2228114266304555,0.4849577139369765,57.59254789657488,0.7125011668316878,0.086918,0.0009287712312512713,719.5927678383632,1.0793106323102948
26,300L_GN_2.0_6.0_25_225_trail_1\GS_53.882_GN_31_L_300_Trail_1_flip.png,1,300,53.881590608032475,31,4.2228114266304555,0.4849577139369765,57.59254789657488,0.7125011668316878,0.086918,0.0009287712312512713,719.5927678383632,1.0793106323102948
27,300L_GN_2.0_6.0_25_225_trail_1\GS_53.882_GN_31_L_300_Trail_1_mirror_flip.png,1,300,53.881590608032475,31,4.2228114266304555,0.4849577139369765,57.59254789657488,0.7125011668316878,0.086918,0.0009287712312512713,719.5927678383632,1.0793106323102948
28,300L_GN_2.0_6.0_25_225_trail_1\GS_53.033_GN_32_L_300_Trail_1_orig.png,1,300,53.03300858899106,32,4.6240863287969125,0.48970965322535004,55.878972068593704,0.48717835121871933,0.08572199999999999,0.0008542458662469478,706.3567467435793,1.8688513359522245
29,300L_GN_2.0_6.0_25_225_trail_1\GS_53.033_GN_32_L_300_Trail_1_mirror.png,1,300,53.03300858899106,32,4.6240863287969125,0.48970965322535004,55.878972068593704,0.48717835121871933,0.08572199999999999,0.0008542458662469478,706.3567467435793,1.8688513359522245
30,300L_GN_2.0_6.0_25_225_trail_1\GS_53.033_GN_32_L_300_Trail_1_flip.png,1,300,53.03300858899106,32,4.6240863287969125,0.48970965322535004,55.878972068593704,0.48717835121871933,0.08572199999999999,0.0008542458662469478,706.3567467435793,1.8688513359522245
31,300L_GN_2.0_6.0_25_225_trail_1\GS_53.033_GN_32_L_300_Trail_1_mirror_flip.png,1,300,53.03300858899106,32,4.6240863287969125,0.48970965322535004,55.878972068593704,0.48717835121871933,0.08572199999999999,0.0008542458662469478,706.3567467435793,1.8688513359522245
32,300L_GN_2.0_6.0_25_225_trail_1\GS_52.223_GN_33_L_300_Trail_1_orig.png,1,300,52.223296786709355,33,3.8107063940655572,0.2665354734307616,51.320183624491975,2.857997648378999,0.075126,0.005655010521652457,725.8565555738932,1.0986451418961365
33,300L_GN_2.0_6.0_25_225_trail_1\GS_52.223_GN_33_L_300_Trail_1_mirror.png,1,300,52.223296786709355,33,3.8107063940655572,0.2665354734307616,51.320183624491975,2.857997648378999,0.075126,0.005655010521652457,725.8565555738932,1.0986451418961365
34,300L_GN_2.0_6.0_25_225_trail_1\GS_52.223_GN_33_L_300_Trail_1_flip.png,1,300,52.223296786709355,33,3.8107063940655572,0.2665354734307616,51.320183624491975,2.857997648378999,0.075126,0.005655010521652457,725.8565555738932,1.0986451418961365
35,300L_GN_2.0_6.0_25_225_trail_1\GS_52.223_GN_33_L_300_Trail_1_mirror_flip.png,1,300,52.223296786709355,33,3.8107063940655572,0.2665354734307616,51.320183624491975,2.857997648378999,0.075126,0.005655010521652457,725.8565555738932,1.0986451418961365
36,300L_GN_2.0_6.0_25_225_trail_1\GS_51.45_GN_34_L_300_Trail_1_orig.png,1,300,51.44957554275265,34,3.6330802527993353,0.5210761776751869,56.40386266499735,0.2958790371502299,0.08522500000000002,0.0004261748467472009,712.4715674560589,0.3530172875591716
37,300L_GN_2.0_6.0_25_225_trail_1\GS_51.45_GN_34_L_300_Trail_1_mirror.png,1,300,51.44957554275265,34,3.6330802527993353,0.5210761776751869,56.40386266499735,0.2958790371502299,0.08522500000000002,0.0004261748467472009,712.4715674560589,0.3530172875591716
38,300L_GN_2.0_6.0_25_225_trail_1\GS_51.45_GN_34_L_300_Trail_1_flip.png,1,300,51.44957554275265,34,3.6330802527993353,0.5210761776751869,56.40386266499735,0.2958790371502299,0.08522500000000002,0.0004261748467472009,712.4715674560589,0.3530172875591716
39,300L_GN_2.0_6.0_25_225_trail_1\GS_51.45_GN_34_L_300_Trail_1_mirror_flip.png,1,300,51.44957554275265,34,3.6330802527993353,0.5210761776751869,56.40386266499735,0.2958790371502299,0.08522500000000002,0.0004261748467472009,712.4715674560589,0.3530172875591716
40,300L_GN_2.0_6.0_25_225_trail_1\GS_50.709_GN_35_L_300_Trail_1_orig.png,1,300,50.709255283710995,35,3.959684591020583,0.2594619508610938,52.4678748709886,0.7933536997379744,0.076732,0.0008457753838933823,731.8362801399805,1.5597319803313905
41,300L_GN_2.0_6.0_25_225_trail_1\GS_50.709_GN_35_L_300_Trail_1_mirror.png,1,300,50.709255283710995,35,3.959684591020583,0.2594619508610938,52.4678748709886,0.7933536997379744,0.076732,0.0008457753838933823,731.8362801399805,1.5597319803313905
42,300L_GN_2.0_6.0_25_225_trail_1\GS_50.709_GN_35_L_300_Trail_1_flip.png,1,300,50.709255283710995,35,3.959684591020583,0.2594619508610938,52.4678748709886,0.7933536997379744,0.076732,0.0008457753838933823,731.8362801399805,1.5597319803313905
43,300L_GN_2.0_6.0_25_225_trail_1\GS_50.709_GN_35_L_300_Trail_1_mirror_flip.png,1,300,50.709255283710995,35,3.959684591020583,0.2594619508610938,52.4678748709886,0.7933536997379744,0.076732,0.0008457753838933823,731.8362801399805,1.5597319803313905
44,300L_GN_2.0_6.0_25_225_trail_1\GS_50.0_GN_36_L_300_Trail_1_orig.png,1,300,50.0,36,3.7459069761940236,0.5006000292088433,50.73202842641486,0.8900232670762843,0.07691,0.0015095959724376554,706.8563133557559,2.2849764286170573
45,300L_GN_2.0_6.0_25_225_trail_1\GS_50.0_GN_36_L_300_Trail_1_mirror.png,1,300,50.0,36,3.7459069761940236,0.5006000292088433,50.73202842641486,0.8900232670762843,0.07691,0.0015095959724376554,706.8563133557559,2.2849764286170573
46,300L_GN_2.0_6.0_25_225_trail_1\GS_50.0_GN_36_L_300_Trail_1_flip.png,1,300,50.0,36,3.7459069761940236,0.5006000292088433,50.73202842641486,0.8900232670762843,0.07691,0.0015095959724376554,706.8563133557559,2.2849764286170573
47,300L_GN_2.0_6.0_25_225_trail_1\GS_50.0_GN_36_L_300_Trail_1_mirror_flip.png,1,300,50.0,36,3.7459069761940236,0.5006000292088433,50.73202842641486,0.8900232670762843,0.07691,0.0015095959724376554,706.8563133557559,2.2849764286170573
48,300L_GN_2.0_6.0_25_225_trail_1\GS_49.32_GN_37_L_300_Trail_1_orig.png,1,300,49.31969619160719,37,3.7851866334758824,0.09428692921551668,50.55137245935792,0.917147485251335,0.07516799999999998,0.0014537730221736826,717.2218303667503,1.7875820549015677
49,300L_GN_2.0_6.0_25_225_trail_1\GS_49.32_GN_37_L_300_Trail_1_mirror.png,1,300,49.31969619160719,37,3.7851866334758824,0.09428692921551668,50.55137245935792,0.917147485251335,0.07516799999999998,0.0014537730221736826,717.2218303667503,1.7875820549015677
50,300L_GN_2.0_6.0_25_225_trail_1\GS_49.32_GN_37_L_300_Trail_1_flip.png,1,300,49.31969619160719,37,3.7851866334758824,0.09428692921551668,50.55137245935792,0.917147485251335,0.07516799999999998,0.0014537730221736826,717.2218303667503,1.7875820549015677
51,300L_GN_2.0_6.0_25_225_trail_1\GS_49.32_GN_37_L_300_Trail_1_mirror_flip.png,1,300,49.31969619160719,37,3.7851866334758824,0.09428692921551668,50.55137245935792,0.917147485251335,0.07516799999999998,0.0014537730221736826,717.2218303667503,1.7875820549015677
52,300L_GN_2.0_6.0_25_225_trail_1\GS_48.666_GN_38_L_300_Trail_1_orig.png,1,300,48.666426339228764,38,4.106128584593701,0.3336099715868586,52.990501896149816,0.9792100894513998,0.08228800000000001,0.0018438806902834049,695.9095725090417,1.3123228258765973
53,300L_GN_2.0_6.0_25_225_trail_1\GS_48.666_GN_38_L_300_Trail_1_mirror.png,1,300,48.666426339228764,38,4.106128584593701,0.3336099715868586,52.990501896149816,0.9792100894513998,0.08228800000000001,0.0018438806902834049,695.9095725090417,1.3123228258765973
54,300L_GN_2.0_6.0_25_225_trail_1\GS_48.666_GN_38_L_300_Trail_1_flip.png,1,300,48.666426339228764,38,4.106128584593701,0.3336099715868586,52.990501896149816,0.9792100894513998,0.08228800000000001,0.0018438806902834049,695.9095725090417,1.3123228258765973
55,300L_GN_2.0_6.0_25_225_trail_1\GS_48.666_GN_38_L_300_Trail_1_mirror_flip.png,1,300,48.666426339228764,38,4.106128584593701,0.3336099715868586,52.990501896149816,0.9792100894513998,0.08228800000000001,0.0018438806902834049,695.9095725090417,1.3123228258765973
56,300L_GN_2.0_6.0_25_225_trail_1\GS_48.038_GN_39_L_300_Trail_1_orig.png,1,300,48.03844614152614,39,4.438535631040673,0.3546870482673248,52.408838756694806,1.2749281620598176,0.08071600000000001,0.0020688412215537472,700.9004757437758,0.4873406411744197
57,300L_GN_2.0_6.0_25_225_trail_1\GS_48.038_GN_39_L_300_Trail_1_mirror.png,1,300,48.03844614152614,39,4.438535631040673,0.3546870482673248,52.408838756694806,1.2749281620598176,0.08071600000000001,0.0020688412215537472,700.9004757437758,0.4873406411744197
58,300L_GN_2.0_6.0_25_225_trail_1\GS_48.038_GN_39_L_300_Trail_1_flip.png,1,300,48.03844614152614,39,4.438535631040673,0.3546870482673248,52.408838756694806,1.2749281620598176,0.08071600000000001,0.0020688412215537472,700.9004757437758,0.4873406411744197
59,300L_GN_2.0_6.0_25_225_trail_1\GS_48.038_GN_39_L_300_Trail_1_mirror_flip.png,1,300,48.03844614152614,39,4.438535631040673,0.3546870482673248,52.408838756694806,1.2749281620598176,0.08071600000000001,0.0020688412215537472,700.9004757437758,0.4873406411744197
60,300L_GN_2.0_6.0_25_225_trail_1\GS_47.434_GN_40_L_300_Trail_1_orig.png,1,300,47.43416490252569,40,3.8028261880008785,0.6518693297396697,57.72602332705816,0.4233669865990258,0.088704,0.0007838775414565726,706.1487370994331,2.0613372108348136
61,300L_GN_2.0_6.0_25_225_trail_1\GS_47.434_GN_40_L_300_Trail_1_mirror.png,1,300,47.43416490252569,40,3.8028261880008785,0.6518693297396697,57.72602332705816,0.4233669865990258,0.088704,0.0007838775414565726,706.1487370994331,2.0613372108348136
62,300L_GN_2.0_6.0_25_225_trail_1\GS_47.434_GN_40_L_300_Trail_1_flip.png,1,300,47.43416490252569,40,3.8028261880008785,0.6518693297396697,57.72602332705816,0.4233669865990258,0.088704,0.0007838775414565726,706.1487370994331,2.0613372108348136
63,300L_GN_2.0_6.0_25_225_trail_1\GS_47.434_GN_40_L_300_Trail_1_mirror_flip.png,1,300,47.43416490252569,40,3.8028261880008785,0.6518693297396697,57.72602332705816,0.4233669865990258,0.088704,0.0007838775414565726,706.1487370994331,2.0613372108348136
64,300L_GN_2.0_6.0_25_225_trail_1\GS_46.852_GN_41_L_300_Trail_1_orig.png,1,300,46.85212856658182,41,5.044172781269613,0.18316149038804366,53.308192384358925,1.2893698323788425,0.08320000000000001,0.002382653982432191,693.8425525814437,1.1545860859976602
65,300L_GN_2.0_6.0_25_225_trail_1\GS_46.852_GN_41_L_300_Trail_1_mirror.png,1,300,46.85212856658182,41,5.044172781269613,0.18316149038804366,53.308192384358925,1.2893698323788425,0.08320000000000001,0.002382653982432191,693.8425525814437,1.1545860859976602
66,300L_GN_2.0_6.0_25_225_trail_1\GS_46.852_GN_41_L_300_Trail_1_flip.png,1,300,46.85212856658182,41,5.044172781269613,0.18316149038804366,53.308192384358925,1.2893698323788425,0.08320000000000001,0.002382653982432191,693.8425525814437,1.1545860859976602
67,300L_GN_2.0_6.0_25_225_trail_1\GS_46.852_GN_41_L_300_Trail_1_mirror_flip.png,1,300,46.85212856658182,41,5.044172781269613,0.18316149038804366,53.308192384358925,1.2893698323788425,0.08320000000000001,0.002382653982432191,693.8425525814437,1.1545860859976602
68,300L_GN_2.0_6.0_25_225_trail_1\GS_45.75_GN_43_L_300_Trail_1_orig.png,1,300,45.7495710997814,43,4.757363727578534,0.6222899140211156,49.02414953707968,0.42054861110705416,0.07459000000000002,0.0007937253933193747,690.0876846054401,1.2218260246529455
69,300L_GN_2.0_6.0_25_225_trail_1\GS_45.75_GN_43_L_300_Trail_1_mirror.png,1,300,45.7495710997814,43,4.757363727578534,0.6222899140211156,49.02414953707968,0.42054861110705416,0.07459000000000002,0.0007937253933193747,690.0876846054401,1.2218260246529455
70,300L_GN_2.0_6.0_25_225_trail_1\GS_45.75_GN_43_L_300_Trail_1_flip.png,1,300,45.7495710997814,43,4.757363727578534,0.6222899140211156,49.02414953707968,0.42054861110705416,0.07459000000000002,0.0007937253933193747,690.0876846054401,1.2218260246529455
71,300L_GN_2.0_6.0_25_225_trail_1\GS_45.75_GN_43_L_300_Trail_1_mirror_flip.png,1,300,45.7495710997814,43,4.757363727578534,0.6222899140211156,49.02414953707968,0.42054861110705416,0.07459000000000002,0.0007937253933193747,690.0876846054401,1.2218260246529455
72,300L_GN_2.0_6.0_25_225_trail_1\GS_45.227_GN_44_L_300_Trail_1_orig.png,1,300,45.22670168666454,44,3.8811427304632504,0.33675405595189817,47.98051079191562,0.7970148542468173,0.07232000000000001,0.0011615162504244173,709.2149431360601,0.8405494156950697
73,300L_GN_2.0_6.0_25_225_trail_1\GS_45.227_GN_44_L_300_Trail_1_mirror.png,1,300,45.22670168666454,44,3.8811427304632504,0.33675405595189817,47.98051079191562,0.7970148542468173,0.07232000000000001,0.0011615162504244173,709.2149431360601,0.8405494156950697
74,300L_GN_2.0_6.0_25_225_trail_1\GS_45.227_GN_44_L_300_Trail_1_flip.png,1,300,45.22670168666454,44,3.8811427304632504,0.33675405595189817,47.98051079191562,0.7970148542468173,0.07232000000000001,0.0011615162504244173,709.2149431360601,0.8405494156950697
75,300L_GN_2.0_6.0_25_225_trail_1\GS_45.227_GN_44_L_300_Trail_1_mirror_flip.png,1,300,45.22670168666454,44,3.8811427304632504,0.33675405595189817,47.98051079191562,0.7970148542468173,0.07232000000000001,0.0011615162504244173,709.2149431360601,0.8405494156950697
76,300L_GN_2.0_6.0_25_225_trail_1\GS_43.759_GN_47_L_300_Trail_1_orig.png,1,300,43.75949744936837,47,4.014436601951611,0.7191211605759023,50.17089437095227,2.558394117009721,0.07781800000000001,0.004402914489290021,703.9833338806081,0.761676026464867
77,300L_GN_2.0_6.0_25_225_trail_1\GS_43.759_GN_47_L_300_Trail_1_mirror.png,1,300,43.75949744936837,47,4.014436601951611,0.7191211605759023,50.17089437095227,2.558394117009721,0.07781800000000001,0.004402914489290021,703.9833338806081,0.761676026464867
78,300L_GN_2.0_6.0_25_225_trail_1\GS_43.759_GN_47_L_300_Trail_1_flip.png,1,300,43.75949744936837,47,4.014436601951611,0.7191211605759023,50.17089437095227,2.558394117009721,0.07781800000000001,0.004402914489290021,703.9833338806081,0.761676026464867
79,300L_GN_2.0_6.0_25_225_trail_1\GS_43.759_GN_47_L_300_Trail_1_mirror_flip.png,1,300,43.75949744936837,47,4.014436601951611,0.7191211605759023,50.17089437095227,2.558394117009721,0.07781800000000001,0.004402914489290021,703.9833338806081,0.761676026464867
80,300L_GN_2.0_6.0_25_225_trail_1\GS_43.301_GN_48_L_300_Trail_1_orig.png,1,300,43.30127018922194,48,4.637968259161429,0.4403780912378097,49.826073790733055,1.3420415496444842,0.077566,0.002247314842206138,692.0641912495697,1.195270178176237
81,300L_GN_2.0_6.0_25_225_trail_1\GS_43.301_GN_48_L_300_Trail_1_mirror.png,1,300,43.30127018922194,48,4.637968259161429,0.4403780912378097,49.826073790733055,1.3420415496444842,0.077566,0.002247314842206138,692.0641912495697,1.195270178176237
82,300L_GN_2.0_6.0_25_225_trail_1\GS_43.301_GN_48_L_300_Trail_1_flip.png,1,300,43.30127018922194,48,4.637968259161429,0.4403780912378097,49.826073790733055,1.3420415496444842,0.077566,0.002247314842206138,692.0641912495697,1.195270178176237
83,300L_GN_2.0_6.0_25_225_trail_1\GS_43.301_GN_48_L_300_Trail_1_mirror_flip.png,1,300,43.30127018922194,48,4.637968259161429,0.4403780912378097,49.826073790733055,1.3420415496444842,0.077566,0.002247314842206138,692.0641912495697,1.195270178176237
84,300L_GN_2.0_6.0_25_225_trail_1\GS_42.426_GN_50_L_300_Trail_1_orig.png,1,300,42.42640687119285,50,3.9738898866604315,0.2669201527434485,50.98838845495607,0.5295366946639846,0.07678,0.0014375952142379961,699.7869230555289,1.0460619149982353
85,300L_GN_2.0_6.0_25_225_trail_1\GS_42.426_GN_50_L_300_Trail_1_mirror.png,1,300,42.42640687119285,50,3.9738898866604315,0.2669201527434485,50.98838845495607,0.5295366946639846,0.07678,0.0014375952142379961,699.7869230555289,1.0460619149982353
86,300L_GN_2.0_6.0_25_225_trail_1\GS_42.426_GN_50_L_300_Trail_1_flip.png,1,300,42.42640687119285,50,3.9738898866604315,0.2669201527434485,50.98838845495607,0.5295366946639846,0.07678,0.0014375952142379961,699.7869230555289,1.0460619149982353
87,300L_GN_2.0_6.0_25_225_trail_1\GS_42.426_GN_50_L_300_Trail_1_mirror_flip.png,1,300,42.42640687119285,50,3.9738898866604315,0.2669201527434485,50.98838845495607,0.5295366946639846,0.07678,0.0014375952142379961,699.7869230555289,1.0460619149982353
88,300L_GN_2.0_6.0_25_225_trail_1\GS_41.603_GN_52_L_300_Trail_1_orig.png,1,300,41.60251471689219,52,3.447009811654708,0.5342200775647479,52.87959835449349,0.3244078935973752,0.083916,0.0014549584186498235,675.1875250338212,1.2097352775810004
89,300L_GN_2.0_6.0_25_225_trail_1\GS_41.603_GN_52_L_300_Trail_1_mirror.png,1,300,41.60251471689219,52,3.447009811654708,0.5342200775647479,52.87959835449349,0.3244078935973752,0.083916,0.0014549584186498235,675.1875250338212,1.2097352775810004
90,300L_GN_2.0_6.0_25_225_trail_1\GS_41.603_GN_52_L_300_Trail_1_flip.png,1,300,41.60251471689219,52,3.447009811654708,0.5342200775647479,52.87959835449349,0.3244078935973752,0.083916,0.0014549584186498235,675.1875250338212,1.2097352775810004
91,300L_GN_2.0_6.0_25_225_trail_1\GS_41.603_GN_52_L_300_Trail_1_mirror_flip.png,1,300,41.60251471689219,52,3.447009811654708,0.5342200775647479,52.87959835449349,0.3244078935973752,0.083916,0.0014549584186498235,675.1875250338212,1.2097352775810004
92,300L_GN_2.0_6.0_25_225_trail_1\GS_41.208_GN_53_L_300_Trail_1_orig.png,1,300,41.20816918460671,53,4.533424016263654,0.20292859227971413,51.4090468253122,1.5372581398257845,0.078874,0.0025941904324856334,691.5559434804893,0.7393577778659898
93,300L_GN_2.0_6.0_25_225_trail_1\GS_41.208_GN_53_L_300_Trail_1_mirror.png,1,300,41.20816918460671,53,4.533424016263654,0.20292859227971413,51.4090468253122,1.5372581398257845,0.078874,0.0025941904324856334,691.5559434804893,0.7393577778659898
94,300L_GN_2.0_6.0_25_225_trail_1\GS_41.208_GN_53_L_300_Trail_1_flip.png,1,300,41.20816918460671,53,4.533424016263654,0.20292859227971413,51.4090468253122,1.5372581398257845,0.078874,0.0025941904324856334,691.5559434804893,0.7393577778659898
95,300L_GN_2.0_6.0_25_225_trail_1\GS_41.208_GN_53_L_300_Trail_1_mirror_flip.png,1,300,41.20816918460671,53,4.533424016263654,0.20292859227971413,51.4090468253122,1.5372581398257845,0.078874,0.0025941904324856334,691.5559434804893,0.7393577778659898
96,300L_GN_2.0_6.0_25_225_trail_1\GS_40.089_GN_56_L_300_Trail_1_orig.png,1,300,40.08918628686366,56,3.171345485103276,0.22467160468305183,51.89825237424496,0.844583807525383,0.078592,0.0018382970380218773,687.4621469175243,0.8199821425670277
97,300L_GN_2.0_6.0_25_225_trail_1\GS_40.089_GN_56_L_300_Trail_1_mirror.png,1,300,40.08918628686366,56,3.171345485103276,0.22467160468305183,51.89825237424496,0.844583807525383,0.078592,0.0018382970380218773,687.4621469175243,0.8199821425670277
98,300L_GN_2.0_6.0_25_225_trail_1\GS_40.089_GN_56_L_300_Trail_1_flip.png,1,300,40.08918628686366,56,3.171345485103276,0.22467160468305183,51.89825237424496,0.844583807525383,0.078592,0.0018382970380218773,687.4621469175243,0.8199821425670277
99,300L_GN_2.0_6.0_25_225_trail_1\GS_40.089_GN_56_L_300_Trail_1_mirror_flip.png,1,300,40.08918628686366,56,3.171345485103276,0.22467160468305183,51.89825237424496,0.844583807525383,0.078592,0.0018382970380218773,687.4621469175243,0.8199821425670277
100,300L_GN_2.0_6.0_25_225_trail_1\GS_39.392_GN_58_L_300_Trail_1_orig.png,1,300,39.391929857916764,58,4.221606221065153,0.6529591223780581,49.59702416798924,0.6917931480691611,0.080278,0.0011147448138475468,668.1051820129057,3.0023747442617243
101,300L_GN_2.0_6.0_25_225_trail_1\GS_39.392_GN_58_L_300_Trail_1_mirror.png,1,300,39.391929857916764,58,4.221606221065153,0.6529591223780581,49.59702416798924,0.6917931480691611,0.080278,0.0011147448138475468,668.1051820129057,3.0023747442617243
102,300L_GN_2.0_6.0_25_225_trail_1\GS_39.392_GN_58_L_300_Trail_1_flip.png,1,300,39.391929857916764,58,4.221606221065153,0.6529591223780581,49.59702416798924,0.6917931480691611,0.080278,0.0011147448138475468,668.1051820129057,3.0023747442617243
103,300L_GN_2.0_6.0_25_225_trail_1\GS_39.392_GN_58_L_300_Trail_1_mirror_flip.png,1,300,39.391929857916764,58,4.221606221065153,0.6529591223780581,49.59702416798924,0.6917931480691611,0.080278,0.0011147448138475468,668.1051820129057,3.0023747442617243
104,300L_GN_2.0_6.0_25_225_trail_1\GS_38.73_GN_60_L_300_Trail_1_orig.png,1,300,38.72983346207417,60,3.7118238392208682,0.21465104646850816,48.65694680731955,1.2143091917665993,0.076046,0.0020288380911250704,673.684078206902,1.8122747893776738
105,300L_GN_2.0_6.0_25_225_trail_1\GS_38.73_GN_60_L_300_Trail_1_mirror.png,1,300,38.72983346207417,60,3.7118238392208682,0.21465104646850816,48.65694680731955,1.2143091917665993,0.076046,0.0020288380911250704,673.684078206902,1.8122747893776738
106,300L_GN_2.0_6.0_25_225_trail_1\GS_38.73_GN_60_L_300_Trail_1_flip.png,1,300,38.72983346207417,60,3.7118238392208682,0.21465104646850816,48.65694680731955,1.2143091917665993,0.076046,0.0020288380911250704,673.684078206902,1.8122747893776738
107,300L_GN_2.0_6.0_25_225_trail_1\GS_38.73_GN_60_L_300_Trail_1_mirror_flip.png,1,300,38.72983346207417,60,3.7118238392208682,0.21465104646850816,48.65694680731955,1.2143091917665993,0.076046,0.0020288380911250704,673.684078206902,1.8122747893776738
108,300L_GN_2.0_6.0_25_225_trail_1\GS_38.1_GN_62_L_300_Trail_1_orig.png,1,300,38.10003810005715,62,3.9738690704759483,0.22123882595485417,49.46247482237214,0.9658809764394345,0.075184,0.0015314254797410168,699.4854913646662,1.1354187595747371
109,300L_GN_2.0_6.0_25_225_trail_1\GS_38.1_GN_62_L_300_Trail_1_mirror.png,1,300,38.10003810005715,62,3.9738690704759483,0.22123882595485417,49.46247482237214,0.9658809764394345,0.075184,0.0015314254797410168,699.4854913646662,1.1354187595747371
110,300L_GN_2.0_6.0_25_225_trail_1\GS_38.1_GN_62_L_300_Trail_1_flip.png,1,300,38.10003810005715,62,3.9738690704759483,0.22123882595485417,49.46247482237214,0.9658809764394345,0.075184,0.0015314254797410168,699.4854913646662,1.1354187595747371
111,300L_GN_2.0_6.0_25_225_trail_1\GS_38.1_GN_62_L_300_Trail_1_mirror_flip.png,1,300,38.10003810005715,62,3.9738690704759483,0.22123882595485417,49.46247482237214,0.9658809764394345,0.075184,0.0015314254797410168,699.4854913646662,1.1354187595747371
112,300L_GN_2.0_6.0_25_225_trail_1\GS_37.5_GN_64_L_300_Trail_1_orig.png,1,300,37.5,64,3.031624073552437,0.1112370918399552,50.992828188559514,0.43616987066481616,0.07783999999999999,0.000820755749294513,685.2916042875138,0.6321129348582373
113,300L_GN_2.0_6.0_25_225_trail_1\GS_37.5_GN_64_L_300_Trail_1_mirror.png,1,300,37.5,64,3.031624073552437,0.1112370918399552,50.992828188559514,0.43616987066481616,0.07783999999999999,0.000820755749294513,685.2916042875138,0.6321129348582373
114,300L_GN_2.0_6.0_25_225_trail_1\GS_37.5_GN_64_L_300_Trail_1_flip.png,1,300,37.5,64,3.031624073552437,0.1112370918399552,50.992828188559514,0.43616987066481616,0.07783999999999999,0.000820755749294513,685.2916042875138,0.6321129348582373
115,300L_GN_2.0_6.0_25_225_trail_1\GS_37.5_GN_64_L_300_Trail_1_mirror_flip.png,1,300,37.5,64,3.031624073552437,0.1112370918399552,50.992828188559514,0.43616987066481616,0.07783999999999999,0.000820755749294513,685.2916042875138,0.6321129348582373
116,300L_GN_2.0_6.0_25_225_trail_1\GS_36.927_GN_66_L_300_Trail_1_orig.png,1,300,36.927447293799815,66,4.045433053722928,0.43934042873459733,57.05493646979086,0.7477481746614865,0.090392,0.0010872239879620017,668.1571912068727,0.5207617450749308
117,300L_GN_2.0_6.0_25_225_trail_1\GS_36.927_GN_66_L_300_Trail_1_mirror.png,1,300,36.927447293799815,66,4.045433053722928,0.43934042873459733,57.05493646979086,0.7477481746614865,0.090392,0.0010872239879620017,668.1571912068727,0.5207617450749308
118,300L_GN_2.0_6.0_25_225_trail_1\GS_36.927_GN_66_L_300_Trail_1_flip.png,1,300,36.927447293799815,66,4.045433053722928,0.43934042873459733,57.05493646979086,0.7477481746614865,0.090392,0.0010872239879620017,668.1571912068727,0.5207617450749308
119,300L_GN_2.0_6.0_25_225_trail_1\GS_36.927_GN_66_L_300_Trail_1_mirror_flip.png,1,300,36.927447293799815,66,4.045433053722928,0.43934042873459733,57.05493646979086,0.7477481746614865,0.090392,0.0010872239879620017,668.1571912068727,0.5207617450749308
120,300L_GN_2.0_6.0_25_225_trail_1\GS_36.116_GN_69_L_300_Trail_1_orig.png,1,300,36.11575592573076,69,4.219039435068846,0.49939411529936606,50.86029893572246,1.3435949420752964,0.07979,0.002322584767021434,681.0385173143128,1.1615409429927557
121,300L_GN_2.0_6.0_25_225_trail_1\GS_36.116_GN_69_L_300_Trail_1_mirror.png,1,300,36.11575592573076,69,4.219039435068846,0.49939411529936606,50.86029893572246,1.3435949420752964,0.07979,0.002322584767021434,681.0385173143128,1.1615409429927557
122,300L_GN_2.0_6.0_25_225_trail_1\GS_36.116_GN_69_L_300_Trail_1_flip.png,1,300,36.11575592573076,69,4.219039435068846,0.49939411529936606,50.86029893572246,1.3435949420752964,0.07979,0.002322584767021434,681.0385173143128,1.1615409429927557
123,300L_GN_2.0_6.0_25_225_trail_1\GS_36.116_GN_69_L_300_Trail_1_mirror_flip.png,1,300,36.11575592573076,69,4.219039435068846,0.49939411529936606,50.86029893572246,1.3435949420752964,0.07979,0.002322584767021434,681.0385173143128,1.1615409429927557
124,300L_GN_2.0_6.0_25_225_trail_1\GS_34.874_GN_74_L_300_Trail_1_orig.png,1,300,34.87429162314579,74,3.8314960091089008,0.6103427870314351,51.892170751857655,0.17590289580743002,0.08235200000000001,0.00034982281229216394,664.5068502194001,1.4706042979545697
125,300L_GN_2.0_6.0_25_225_trail_1\GS_34.874_GN_74_L_300_Trail_1_mirror.png,1,300,34.87429162314579,74,3.8314960091089008,0.6103427870314351,51.892170751857655,0.17590289580743002,0.08235200000000001,0.00034982281229216394,664.5068502194001,1.4706042979545697
126,300L_GN_2.0_6.0_25_225_trail_1\GS_34.874_GN_74_L_300_Trail_1_flip.png,1,300,34.87429162314579,74,3.8314960091089008,0.6103427870314351,51.892170751857655,0.17590289580743002,0.08235200000000001,0.00034982281229216394,664.5068502194001,1.4706042979545697
127,300L_GN_2.0_6.0_25_225_trail_1\GS_34.874_GN_74_L_300_Trail_1_mirror_flip.png,1,300,34.87429162314579,74,3.8314960091089008,0.6103427870314351,51.892170751857655,0.17590289580743002,0.08235200000000001,0.00034982281229216394,664.5068502194001,1.4706042979545697
128,300L_GN_2.0_6.0_25_225_trail_1\GS_33.968_GN_78_L_300_Trail_1_orig.png,1,300,33.96831102433787,78,4.413024384934081,0.33857855916465956,51.364384383119855,0.3456006946888625,0.08009000000000001,0.0007779717218511196,685.7833303122309,1.0217135868955485
129,300L_GN_2.0_6.0_25_225_trail_1\GS_33.968_GN_78_L_300_Trail_1_mirror.png,1,300,33.96831102433787,78,4.413024384934081,0.33857855916465956,51.364384383119855,0.3456006946888625,0.08009000000000001,0.0007779717218511196,685.7833303122309,1.0217135868955485
130,300L_GN_2.0_6.0_25_225_trail_1\GS_33.968_GN_78_L_300_Trail_1_flip.png,1,300,33.96831102433787,78,4.413024384934081,0.33857855916465956,51.364384383119855,0.3456006946888625,0.08009000000000001,0.0007779717218511196,685.7833303122309,1.0217135868955485
131,300L_GN_2.0_6.0_25_225_trail_1\GS_33.968_GN_78_L_300_Trail_1_mirror_flip.png,1,300,33.96831102433787,78,4.413024384934081,0.33857855916465956,51.364384383119855,0.3456006946888625,0.08009000000000001,0.0007779717218511196,685.7833303122309,1.0217135868955485
132,300L_GN_2.0_6.0_25_225_trail_1\GS_33.129_GN_82_L_300_Trail_1_orig.png,1,300,33.12945782245396,82,4.061046198002,0.44426285588785613,52.01836236500999,1.1460653916482253,0.08141200000000001,0.002159642563018243,679.7248975135756,1.4846570320035315
133,300L_GN_2.0_6.0_25_225_trail_1\GS_33.129_GN_82_L_300_Trail_1_mirror.png,1,300,33.12945782245396,82,4.061046198002,0.44426285588785613,52.01836236500999,1.1460653916482253,0.08141200000000001,0.002159642563018243,679.7248975135756,1.4846570320035315
134,300L_GN_2.0_6.0_25_225_trail_1\GS_33.129_GN_82_L_300_Trail_1_flip.png,1,300,33.12945782245396,82,4.061046198002,0.44426285588785613,52.01836236500999,1.1460653916482253,0.08141200000000001,0.002159642563018243,679.7248975135756,1.4846570320035315
135,300L_GN_2.0_6.0_25_225_trail_1\GS_33.129_GN_82_L_300_Trail_1_mirror_flip.png,1,300,33.12945782245396,82,4.061046198002,0.44426285588785613,52.01836236500999,1.1460653916482253,0.08141200000000001,0.002159642563018243,679.7248975135756,1.4846570320035315
136,300L_GN_2.0_6.0_25_225_trail_1\GS_32.163_GN_87_L_300_Trail_1_orig.png,1,300,32.163376045133845,87,4.689677777661607,0.4186768377357981,51.22121077380772,1.3215870219788957,0.08135200000000001,0.0022312902097217186,669.2957221691197,1.4219762193647016
137,300L_GN_2.0_6.0_25_225_trail_1\GS_32.163_GN_87_L_300_Trail_1_mirror.png,1,300,32.163376045133845,87,4.689677777661607,0.4186768377357981,51.22121077380772,1.3215870219788957,0.08135200000000001,0.0022312902097217186,669.2957221691197,1.4219762193647016
138,300L_GN_2.0_6.0_25_225_trail_1\GS_32.163_GN_87_L_300_Trail_1_flip.png,1,300,32.163376045133845,87,4.689677777661607,0.4186768377357981,51.22121077380772,1.3215870219788957,0.08135200000000001,0.0022312902097217186,669.2957221691197,1.4219762193647016
139,300L_GN_2.0_6.0_25_225_trail_1\GS_32.163_GN_87_L_300_Trail_1_mirror_flip.png,1,300,32.163376045133845,87,4.689677777661607,0.4186768377357981,51.22121077380772,1.3215870219788957,0.08135200000000001,0.0022312902097217186,669.2957221691197,1.4219762193647016
140,300L_GN_2.0_6.0_25_225_trail_1\GS_31.449_GN_91_L_300_Trail_1_orig.png,1,300,31.44854510165755,91,2.9222551885914894,0.44789542081658335,50.71005158270432,0.778723556983419,0.08019000000000001,0.0015169179279051312,664.3748484920654,1.4629828901650594
141,300L_GN_2.0_6.0_25_225_trail_1\GS_31.449_GN_91_L_300_Trail_1_mirror.png,1,300,31.44854510165755,91,2.9222551885914894,0.44789542081658335,50.71005158270432,0.778723556983419,0.08019000000000001,0.0015169179279051312,664.3748484920654,1.4629828901650594
142,300L_GN_2.0_6.0_25_225_trail_1\GS_31.449_GN_91_L_300_Trail_1_flip.png,1,300,31.44854510165755,91,2.9222551885914894,0.44789542081658335,50.71005158270432,0.778723556983419,0.08019000000000001,0.0015169179279051312,664.3748484920654,1.4629828901650594
143,300L_GN_2.0_6.0_25_225_trail_1\GS_31.449_GN_91_L_300_Trail_1_mirror_flip.png,1,300,31.44854510165755,91,2.9222551885914894,0.44789542081658335,50.71005158270432,0.778723556983419,0.08019000000000001,0.0015169179279051312,664.3748484920654,1.4629828901650594
144,300L_GN_2.0_6.0_25_225_trail_1\GS_30.779_GN_95_L_300_Trail_1_orig.png,1,300,30.779350562554626,95,4.296741611633245,0.2505039266305876,52.973247734275766,0.6129415239232905,0.08568800000000001,0.001223754877416224,652.0630721648586,1.653174225218056
145,300L_GN_2.0_6.0_25_225_trail_1\GS_30.779_GN_95_L_300_Trail_1_mirror.png,1,300,30.779350562554626,95,4.296741611633245,0.2505039266305876,52.973247734275766,0.6129415239232905,0.08568800000000001,0.001223754877416224,652.0630721648586,1.653174225218056
146,300L_GN_2.0_6.0_25_225_trail_1\GS_30.779_GN_95_L_300_Trail_1_flip.png,1,300,30.779350562554626,95,4.296741611633245,0.2505039266305876,52.973247734275766,0.6129415239232905,0.08568800000000001,0.001223754877416224,652.0630721648586,1.653174225218056
147,300L_GN_2.0_6.0_25_225_trail_1\GS_30.779_GN_95_L_300_Trail_1_mirror_flip.png,1,300,30.779350562554626,95,4.296741611633245,0.2505039266305876,52.973247734275766,0.6129415239232905,0.08568800000000001,0.001223754877416224,652.0630721648586,1.653174225218056
148,300L_GN_2.0_6.0_25_225_trail_1\GS_30.0_GN_100_L_300_Trail_1_orig.png,1,300,30.0,100,3.012050929094422,0.18933684104262524,51.10276873531717,0.2255485799095659,0.0815825,0.0004607263287462501,673.337512946404,0.6467369313275492
149,300L_GN_2.0_6.0_25_225_trail_1\GS_30.0_GN_100_L_300_Trail_1_mirror.png,1,300,30.0,100,3.012050929094422,0.18933684104262524,51.10276873531717,0.2255485799095659,0.0815825,0.0004607263287462501,673.337512946404,0.6467369313275492
150,300L_GN_2.0_6.0_25_225_trail_1\GS_30.0_GN_100_L_300_Trail_1_flip.png,1,300,30.0,100,3.012050929094422,0.18933684104262524,51.10276873531717,0.2255485799095659,0.0815825,0.0004607263287462501,673.337512946404,0.6467369313275492
151,300L_GN_2.0_6.0_25_225_trail_1\GS_30.0_GN_100_L_300_Trail_1_mirror_flip.png,1,300,30.0,100,3.012050929094422,0.18933684104262524,51.10276873531717,0.2255485799095659,0.0815825,0.0004607263287462501,673.337512946404,0.6467369313275492
152,300L_GN_2.0_6.0_25_225_trail_1\GS_29.139_GN_106_L_300_Trail_1_orig.png,1,300,29.138575870717926,106,4.120817995213801,0.1362416902457875,50.89178781973637,0.607698761101022,0.08306600000000001,0.0013093448743551107,655.0117322310982,0.5568777724525779
153,300L_GN_2.0_6.0_25_225_trail_1\GS_29.139_GN_106_L_300_Trail_1_mirror.png,1,300,29.138575870717926,106,4.120817995213801,0.1362416902457875,50.89178781973637,0.607698761101022,0.08306600000000001,0.0013093448743551107,655.0117322310982,0.5568777724525779
154,300L_GN_2.0_6.0_25_225_trail_1\GS_29.139_GN_106_L_300_Trail_1_flip.png,1,300,29.138575870717926,106,4.120817995213801,0.1362416902457875,50.89178781973637,0.607698761101022,0.08306600000000001,0.0013093448743551107,655.0117322310982,0.5568777724525779
155,300L_GN_2.0_6.0_25_225_trail_1\GS_29.139_GN_106_L_300_Trail_1_mirror_flip.png,1,300,29.138575870717926,106,4.120817995213801,0.1362416902457875,50.89178781973637,0.607698761101022,0.08306600000000001,0.0013093448743551107,655.0117322310982,0.5568777724525779
156,300L_GN_2.0_6.0_25_225_trail_1\GS_28.347_GN_112_L_300_Trail_1_orig.png,1,300,28.34733547569204,112,3.6961761739444734,0.2629303376158934,52.47873440500568,0.7811450721390235,0.08737,0.0012414185434413319,633.624661127801,2.6453730318876882
157,300L_GN_2.0_6.0_25_225_trail_1\GS_28.347_GN_112_L_300_Trail_1_mirror.png,1,300,28.34733547569204,112,3.6961761739444734,0.2629303376158934,52.47873440500568,0.7811450721390235,0.08737,0.0012414185434413319,633.624661127801,2.6453730318876882
158,300L_GN_2.0_6.0_25_225_trail_1\GS_28.347_GN_112_L_300_Trail_1_flip.png,1,300,28.34733547569204,112,3.6961761739444734,0.2629303376158934,52.47873440500568,0.7811450721390235,0.08737,0.0012414185434413319,633.624661127801,2.6453730318876882
159,300L_GN_2.0_6.0_25_225_trail_1\GS_28.347_GN_112_L_300_Trail_1_mirror_flip.png,1,300,28.34733547569204,112,3.6961761739444734,0.2629303376158934,52.47873440500568,0.7811450721390235,0.08737,0.0012414185434413319,633.624661127801,2.6453730318876882
160,300L_GN_2.0_6.0_25_225_trail_1\GS_27.501_GN_119_L_300_Trail_1_orig.png,1,300,27.50095491084634,119,4.141818208454285,0.3259058788516589,46.683752520832385,1.2563102993073916,0.07437000000000002,0.002050004878042976,664.7925407360643,0.8569241732385753
161,300L_GN_2.0_6.0_25_225_trail_1\GS_27.501_GN_119_L_300_Trail_1_mirror.png,1,300,27.50095491084634,119,4.141818208454285,0.3259058788516589,46.683752520832385,1.2563102993073916,0.07437000000000002,0.002050004878042976,664.7925407360643,0.8569241732385753
162,300L_GN_2.0_6.0_25_225_trail_1\GS_27.501_GN_119_L_300_Trail_1_flip.png,1,300,27.50095491084634,119,4.141818208454285,0.3259058788516589,46.683752520832385,1.2563102993073916,0.07437000000000002,0.002050004878042976,664.7925407360643,0.8569241732385753
163,300L_GN_2.0_6.0_25_225_trail_1\GS_27.501_GN_119_L_300_Trail_1_mirror_flip.png,1,300,27.50095491084634,119,4.141818208454285,0.3259058788516589,46.683752520832385,1.2563102993073916,0.07437000000000002,0.002050004878042976,664.7925407360643,0.8569241732385753
164,300L_GN_2.0_6.0_25_225_trail_1\GS_26.726_GN_126_L_300_Trail_1_orig.png,1,300,26.726124191242437,126,4.180856805876821,0.43874483237278855,45.06313438663654,1.1424095469131614,0.07495199999999999,0.0014536629595611266,646.5515972630234,0.947511399793483
165,300L_GN_2.0_6.0_25_225_trail_1\GS_26.726_GN_126_L_300_Trail_1_mirror.png,1,300,26.726124191242437,126,4.180856805876821,0.43874483237278855,45.06313438663654,1.1424095469131614,0.07495199999999999,0.0014536629595611266,646.5515972630234,0.947511399793483
166,300L_GN_2.0_6.0_25_225_trail_1\GS_26.726_GN_126_L_300_Trail_1_flip.png,1,300,26.726124191242437,126,4.180856805876821,0.43874483237278855,45.06313438663654,1.1424095469131614,0.07495199999999999,0.0014536629595611266,646.5515972630234,0.947511399793483
167,300L_GN_2.0_6.0_25_225_trail_1\GS_26.726_GN_126_L_300_Trail_1_mirror_flip.png,1,300,26.726124191242437,126,4.180856805876821,0.43874483237278855,45.06313438663654,1.1424095469131614,0.07495199999999999,0.0014536629595611266,646.5515972630234,0.947511399793483
168,300L_GN_2.0_6.0_25_225_trail_1\GS_26.112_GN_132_L_300_Trail_1_orig.png,1,300,26.111648393354677,132,3.5141951580078286,0.41227955681386375,52.90696462894316,1.1972414964934026,0.08712800000000001,0.002336684831122934,643.2368220894234,1.6220814093339808
169,300L_GN_2.0_6.0_25_225_trail_1\GS_26.112_GN_132_L_300_Trail_1_mirror.png,1,300,26.111648393354677,132,3.5141951580078286,0.41227955681386375,52.90696462894316,1.1972414964934026,0.08712800000000001,0.002336684831122934,643.2368220894234,1.6220814093339808
170,300L_GN_2.0_6.0_25_225_trail_1\GS_26.112_GN_132_L_300_Trail_1_flip.png,1,300,26.111648393354677,132,3.5141951580078286,0.41227955681386375,52.90696462894316,1.1972414964934026,0.08712800000000001,0.002336684831122934,643.2368220894234,1.6220814093339808
171,300L_GN_2.0_6.0_25_225_trail_1\GS_26.112_GN_132_L_300_Trail_1_mirror_flip.png,1,300,26.111648393354677,132,3.5141951580078286,0.41227955681386375,52.90696462894316,1.1972414964934026,0.08712800000000001,0.002336684831122934,643.2368220894234,1.6220814093339808
172,300L_GN_2.0_6.0_25_225_trail_1\GS_25.0_GN_144_L_300_Trail_1_orig.png,1,300,25.0,144,4.427792034589601,0.1656717477146381,47.70921167542433,0.9045383913506255,0.07942400000000001,0.001520613034272689,641.0766748129944,1.8991927428811544
173,300L_GN_2.0_6.0_25_225_trail_1\GS_25.0_GN_144_L_300_Trail_1_mirror.png,1,300,25.0,144,4.427792034589601,0.1656717477146381,47.70921167542433,0.9045383913506255,0.07942400000000001,0.001520613034272689,641.0766748129944,1.8991927428811544
174,300L_GN_2.0_6.0_25_225_trail_1\GS_25.0_GN_144_L_300_Trail_1_flip.png,1,300,25.0,144,4.427792034589601,0.1656717477146381,47.70921167542433,0.9045383913506255,0.07942400000000001,0.001520613034272689,641.0766748129944,1.8991927428811544
175,300L_GN_2.0_6.0_25_225_trail_1\GS_25.0_GN_144_L_300_Trail_1_mirror_flip.png,1,300,25.0,144,4.427792034589601,0.1656717477146381,47.70921167542433,0.9045383913506255,0.07942400000000001,0.001520613034272689,641.0766748129944,1.8991927428811544
176,300L_GN_2.0_6.0_25_225_trail_1\GS_24.333_GN_152_L_300_Trail_1_orig.png,1,300,24.333213169614382,152,4.365331670489972,0.3606042814463764,43.52962427692542,1.24216733936318,0.07096400000000001,0.0018902973311095792,646.1457088796926,1.422389965669644
177,300L_GN_2.0_6.0_25_225_trail_1\GS_24.333_GN_152_L_300_Trail_1_mirror.png,1,300,24.333213169614382,152,4.365331670489972,0.3606042814463764,43.52962427692542,1.24216733936318,0.07096400000000001,0.0018902973311095792,646.1457088796926,1.422389965669644
178,300L_GN_2.0_6.0_25_225_trail_1\GS_24.333_GN_152_L_300_Trail_1_flip.png,1,300,24.333213169614382,152,4.365331670489972,0.3606042814463764,43.52962427692542,1.24216733936318,0.07096400000000001,0.0018902973311095792,646.1457088796926,1.422389965669644
179,300L_GN_2.0_6.0_25_225_trail_1\GS_24.333_GN_152_L_300_Trail_1_mirror_flip.png,1,300,24.333213169614382,152,4.365331670489972,0.3606042814463764,43.52962427692542,1.24216733936318,0.07096400000000001,0.0018902973311095792,646.1457088796926,1.422389965669644
180,300L_GN_2.0_6.0_25_225_trail_1\GS_23.717_GN_160_L_300_Trail_1_orig.png,1,300,23.717082451262844,160,3.2462428922341124,0.16797597231067277,48.86242120651016,0.37712003042832676,0.080162,0.0006650533813161209,638.153538554433,1.1826676799964777
181,300L_GN_2.0_6.0_25_225_trail_1\GS_23.717_GN_160_L_300_Trail_1_mirror.png,1,300,23.717082451262844,160,3.2462428922341124,0.16797597231067277,48.86242120651016,0.37712003042832676,0.080162,0.0006650533813161209,638.153538554433,1.1826676799964777
182,300L_GN_2.0_6.0_25_225_trail_1\GS_23.717_GN_160_L_300_Trail_1_flip.png,1,300,23.717082451262844,160,3.2462428922341124,0.16797597231067277,48.86242120651016,0.37712003042832676,0.080162,0.0006650533813161209,638.153538554433,1.1826676799964777
183,300L_GN_2.0_6.0_25_225_trail_1\GS_23.717_GN_160_L_300_Trail_1_mirror_flip.png,1,300,23.717082451262844,160,3.2462428922341124,0.16797597231067277,48.86242120651016,0.37712003042832676,0.080162,0.0006650533813161209,638.153538554433,1.1826676799964777
184,300L_GN_2.0_6.0_25_225_trail_1\GS_23.146_GN_168_L_300_Trail_1_orig.png,1,300,23.145502494313785,168,4.174874235511775,0.1938748109182054,45.2808098294109,0.7233141271399539,0.07544800000000002,0.001130405237072087,631.8948838167123,1.3812054854468896
185,300L_GN_2.0_6.0_25_225_trail_1\GS_23.146_GN_168_L_300_Trail_1_mirror.png,1,300,23.145502494313785,168,4.174874235511775,0.1938748109182054,45.2808098294109,0.7233141271399539,0.07544800000000002,0.001130405237072087,631.8948838167123,1.3812054854468896
186,300L_GN_2.0_6.0_25_225_trail_1\GS_23.146_GN_168_L_300_Trail_1_flip.png,1,300,23.145502494313785,168,4.174874235511775,0.1938748109182054,45.2808098294109,0.7233141271399539,0.07544800000000002,0.001130405237072087,631.8948838167123,1.3812054854468896
187,300L_GN_2.0_6.0_25_225_trail_1\GS_23.146_GN_168_L_300_Trail_1_mirror_flip.png,1,300,23.145502494313785,168,4.174874235511775,0.1938748109182054,45.2808098294109,0.7233141271399539,0.07544800000000002,0.001130405237072087,631.8948838167123,1.3812054854468896
188,300L_GN_2.0_6.0_25_225_trail_1\GS_22.486_GN_178_L_300_Trail_1_orig.png,1,300,22.48595066987584,178,3.5255881107052716,0.35606054054354436,48.649328089983385,0.851172740865199,0.07997800000000002,0.0012001899849607134,641.6259327064447,1.6987373781793242
189,300L_GN_2.0_6.0_25_225_trail_1\GS_22.486_GN_178_L_300_Trail_1_mirror.png,1,300,22.48595066987584,178,3.5255881107052716,0.35606054054354436,48.649328089983385,0.851172740865199,0.07997800000000002,0.0012001899849607134,641.6259327064447,1.6987373781793242
190,300L_GN_2.0_6.0_25_225_trail_1\GS_22.486_GN_178_L_300_Trail_1_flip.png,1,300,22.48595066987584,178,3.5255881107052716,0.35606054054354436,48.649328089983385,0.851172740865199,0.07997800000000002,0.0012001899849607134,641.6259327064447,1.6987373781793242
191,300L_GN_2.0_6.0_25_225_trail_1\GS_22.486_GN_178_L_300_Trail_1_mirror_flip.png,1,300,22.48595066987584,178,3.5255881107052716,0.35606054054354436,48.649328089983385,0.851172740865199,0.07997800000000002,0.0012001899849607134,641.6259327064447,1.6987373781793242
192,300L_GN_2.0_6.0_25_225_trail_1\GS_21.213_GN_200_L_300_Trail_1_orig.png,1,300,21.213203435596427,200,4.518364131614757,0.6080052356327446,46.281106582325904,0.6769022794873194,0.07775000000000001,0.0020015993605114898,619.9739058343947,2.185633241538136
193,300L_GN_2.0_6.0_25_225_trail_1\GS_21.213_GN_200_L_300_Trail_1_mirror.png,1,300,21.213203435596427,200,4.518364131614757,0.6080052356327446,46.281106582325904,0.6769022794873194,0.07775000000000001,0.0020015993605114898,619.9739058343947,2.185633241538136
194,300L_GN_2.0_6.0_25_225_trail_1\GS_21.213_GN_200_L_300_Trail_1_flip.png,1,300,21.213203435596427,200,4.518364131614757,0.6080052356327446,46.281106582325904,0.6769022794873194,0.07775000000000001,0.0020015993605114898,619.9739058343947,2.185633241538136
195,300L_GN_2.0_6.0_25_225_trail_1\GS_21.213_GN_200_L_300_Trail_1_mirror_flip.png,1,300,21.213203435596427,200,4.518364131614757,0.6080052356327446,46.281106582325904,0.6769022794873194,0.07775000000000001,0.0020015993605114898,619.9739058343947,2.185633241538136
196,300L_GN_2.0_6.0_25_225_trail_1\GS_20.0_GN_225_L_300_Trail_1_orig.png,1,300,20.0,225,3.510079831101393,0.2582298710776113,44.82795818534109,0.4556870821072892,0.07206800000000001,0.0007572951868327191,642.5261799686198,1.9569954314211264
197,300L_GN_2.0_6.0_25_225_trail_1\GS_20.0_GN_225_L_300_Trail_1_mirror.png,1,300,20.0,225,3.510079831101393,0.2582298710776113,44.82795818534109,0.4556870821072892,0.07206800000000001,0.0007572951868327191,642.5261799686198,1.9569954314211264
198,300L_GN_2.0_6.0_25_225_trail_1\GS_20.0_GN_225_L_300_Trail_1_flip.png,1,300,20.0,225,3.510079831101393,0.2582298710776113,44.82795818534109,0.4556870821072892,0.07206800000000001,0.0007572951868327191,642.5261799686198,1.9569954314211264
199,300L_GN_2.0_6.0_25_225_trail_1\GS_20.0_GN_225_L_300_Trail_1_mirror_flip.png,1,300,20.0,225,3.510079831101393,0.2582298710776113,44.82795818534109,0.4556870821072892,0.07206800000000001,0.0007572951868327191,642.5261799686198,1.9569954314211264
200,300L_GN_2.0_6.0_25_225_trail_2\GS_60.0_GN_25_L_300_Trail_2_orig.png,2,300,60.0,25,4.356031386407033,0.5236916765381215,57.51230169661177,1.0057507350064978,0.089226,0.0018826215764194349,705.7085178932635,1.318339201023515
201,300L_GN_2.0_6.0_25_225_trail_2\GS_60.0_GN_25_L_300_Trail_2_mirror.png,2,300,60.0,25,4.356031386407033,0.5236916765381215,57.51230169661177,1.0057507350064978,0.089226,0.0018826215764194349,705.7085178932635,1.318339201023515
202,300L_GN_2.0_6.0_25_225_trail_2\GS_60.0_GN_25_L_300_Trail_2_flip.png,2,300,60.0,25,4.356031386407033,0.5236916765381215,57.51230169661177,1.0057507350064978,0.089226,0.0018826215764194349,705.7085178932635,1.318339201023515
203,300L_GN_2.0_6.0_25_225_trail_2\GS_60.0_GN_25_L_300_Trail_2_mirror_flip.png,2,300,60.0,25,4.356031386407033,0.5236916765381215,57.51230169661177,1.0057507350064978,0.089226,0.0018826215764194349,705.7085178932635,1.318339201023515
204,300L_GN_2.0_6.0_25_225_trail_2\GS_58.835_GN_26_L_300_Trail_2_orig.png,2,300,58.834840541455215,26,3.56420424170783,0.31974740914301214,50.875763471475956,1.6326567490635375,0.07186200000000001,0.002142422927435198,750.0866307317694,1.352504470015095
205,300L_GN_2.0_6.0_25_225_trail_2\GS_58.835_GN_26_L_300_Trail_2_mirror.png,2,300,58.834840541455215,26,3.56420424170783,0.31974740914301214,50.875763471475956,1.6326567490635375,0.07186200000000001,0.002142422927435198,750.0866307317694,1.352504470015095
206,300L_GN_2.0_6.0_25_225_trail_2\GS_58.835_GN_26_L_300_Trail_2_flip.png,2,300,58.834840541455215,26,3.56420424170783,0.31974740914301214,50.875763471475956,1.6326567490635375,0.07186200000000001,0.002142422927435198,750.0866307317694,1.352504470015095
207,300L_GN_2.0_6.0_25_225_trail_2\GS_58.835_GN_26_L_300_Trail_2_mirror_flip.png,2,300,58.834840541455215,26,3.56420424170783,0.31974740914301214,50.875763471475956,1.6326567490635375,0.07186200000000001,0.002142422927435198,750.0866307317694,1.352504470015095
208,300L_GN_2.0_6.0_25_225_trail_2\GS_57.735_GN_27_L_300_Trail_2_orig.png,2,300,57.735026918962575,27,3.919479385885073,0.27415158678058954,52.38770223989242,0.4858219561353666,0.07799200000000002,0.0011403403000859024,716.9513972568582,1.8148885685053535
209,300L_GN_2.0_6.0_25_225_trail_2\GS_57.735_GN_27_L_300_Trail_2_mirror.png,2,300,57.735026918962575,27,3.919479385885073,0.27415158678058954,52.38770223989242,0.4858219561353666,0.07799200000000002,0.0011403403000859024,716.9513972568582,1.8148885685053535
210,300L_GN_2.0_6.0_25_225_trail_2\GS_57.735_GN_27_L_300_Trail_2_flip.png,2,300,57.735026918962575,27,3.919479385885073,0.27415158678058954,52.38770223989242,0.4858219561353666,0.07799200000000002,0.0011403403000859024,716.9513972568582,1.8148885685053535
211,300L_GN_2.0_6.0_25_225_trail_2\GS_57.735_GN_27_L_300_Trail_2_mirror_flip.png,2,300,57.735026918962575,27,3.919479385885073,0.27415158678058954,52.38770223989242,0.4858219561353666,0.07799200000000002,0.0011403403000859024,716.9513972568582,1.8148885685053535
212,300L_GN_2.0_6.0_25_225_trail_2\GS_56.695_GN_28_L_300_Trail_2_orig.png,2,300,56.69467095138408,28,3.151183174237443,0.24737385392003022,51.33633567852498,0.7068130033549872,0.07736400000000002,0.0006064519766642702,716.9947506232845,1.8687421619885198
213,300L_GN_2.0_6.0_25_225_trail_2\GS_56.695_GN_28_L_300_Trail_2_mirror.png,2,300,56.69467095138408,28,3.151183174237443,0.24737385392003022,51.33633567852498,0.7068130033549872,0.07736400000000002,0.0006064519766642702,716.9947506232845,1.8687421619885198
214,300L_GN_2.0_6.0_25_225_trail_2\GS_56.695_GN_28_L_300_Trail_2_flip.png,2,300,56.69467095138408,28,3.151183174237443,0.24737385392003022,51.33633567852498,0.7068130033549872,0.07736400000000002,0.0006064519766642702,716.9947506232845,1.8687421619885198
215,300L_GN_2.0_6.0_25_225_trail_2\GS_56.695_GN_28_L_300_Trail_2_mirror_flip.png,2,300,56.69467095138408,28,3.151183174237443,0.24737385392003022,51.33633567852498,0.7068130033549872,0.07736400000000002,0.0006064519766642702,716.9947506232845,1.8687421619885198
216,300L_GN_2.0_6.0_25_225_trail_2\GS_55.709_GN_29_L_300_Trail_2_orig.png,2,300,55.70860145311556,29,3.6692018705369,0.12395262109076145,53.199548219972904,0.27323294707149304,0.08065400000000002,0.000657194035274211,713.1861792724387,1.9166106990343286
217,300L_GN_2.0_6.0_25_225_trail_2\GS_55.709_GN_29_L_300_Trail_2_mirror.png,2,300,55.70860145311556,29,3.6692018705369,0.12395262109076145,53.199548219972904,0.27323294707149304,0.08065400000000002,0.000657194035274211,713.1861792724387,1.9166106990343286
218,300L_GN_2.0_6.0_25_225_trail_2\GS_55.709_GN_29_L_300_Trail_2_flip.png,2,300,55.70860145311556,29,3.6692018705369,0.12395262109076145,53.199548219972904,0.27323294707149304,0.08065400000000002,0.000657194035274211,713.1861792724387,1.9166106990343286
219,300L_GN_2.0_6.0_25_225_trail_2\GS_55.709_GN_29_L_300_Trail_2_mirror_flip.png,2,300,55.70860145311556,29,3.6692018705369,0.12395262109076145,53.199548219972904,0.27323294707149304,0.08065400000000002,0.000657194035274211,713.1861792724387,1.9166106990343286
220,300L_GN_2.0_6.0_25_225_trail_2\GS_54.772_GN_30_L_300_Trail_2_orig.png,2,300,54.772255750516614,30,5.538331100360121,0.7629854255777851,52.51393252194257,1.3278868410073863,0.07959600000000001,0.0019979549544471733,715.4662592085965,0.41630444100631325
221,300L_GN_2.0_6.0_25_225_trail_2\GS_54.772_GN_30_L_300_Trail_2_mirror.png,2,300,54.772255750516614,30,5.538331100360121,0.7629854255777851,52.51393252194257,1.3278868410073863,0.07959600000000001,0.0019979549544471733,715.4662592085965,0.41630444100631325
222,300L_GN_2.0_6.0_25_225_trail_2\GS_54.772_GN_30_L_300_Trail_2_flip.png,2,300,54.772255750516614,30,5.538331100360121,0.7629854255777851,52.51393252194257,1.3278868410073863,0.07959600000000001,0.0019979549544471733,715.4662592085965,0.41630444100631325
223,300L_GN_2.0_6.0_25_225_trail_2\GS_54.772_GN_30_L_300_Trail_2_mirror_flip.png,2,300,54.772255750516614,30,5.538331100360121,0.7629854255777851,52.51393252194257,1.3278868410073863,0.07959600000000001,0.0019979549544471733,715.4662592085965,0.41630444100631325
224,300L_GN_2.0_6.0_25_225_trail_2\GS_53.882_GN_31_L_300_Trail_2_orig.png,2,300,53.881590608032475,31,3.977259804345175,0.21212946900733654,52.858514373887125,0.4955922627284229,0.07848000000000001,0.0007951100552753673,725.6544641871645,0.9748249983470482
225,300L_GN_2.0_6.0_25_225_trail_2\GS_53.882_GN_31_L_300_Trail_2_mirror.png,2,300,53.881590608032475,31,3.977259804345175,0.21212946900733654,52.858514373887125,0.4955922627284229,0.07848000000000001,0.0007951100552753673,725.6544641871645,0.9748249983470482
226,300L_GN_2.0_6.0_25_225_trail_2\GS_53.882_GN_31_L_300_Trail_2_flip.png,2,300,53.881590608032475,31,3.977259804345175,0.21212946900733654,52.858514373887125,0.4955922627284229,0.07848000000000001,0.0007951100552753673,725.6544641871645,0.9748249983470482
227,300L_GN_2.0_6.0_25_225_trail_2\GS_53.882_GN_31_L_300_Trail_2_mirror_flip.png,2,300,53.881590608032475,31,3.977259804345175,0.21212946900733654,52.858514373887125,0.4955922627284229,0.07848000000000001,0.0007951100552753673,725.6544641871645,0.9748249983470482
228,300L_GN_2.0_6.0_25_225_trail_2\GS_53.033_GN_32_L_300_Trail_2_orig.png,2,300,53.03300858899106,32,4.732859370428185,0.6862036866070604,56.0748107525032,0.5869815462680052,0.086108,0.0012984205790112873,714.2503926436084,1.2870461541766067
229,300L_GN_2.0_6.0_25_225_trail_2\GS_53.033_GN_32_L_300_Trail_2_mirror.png,2,300,53.03300858899106,32,4.732859370428185,0.6862036866070604,56.0748107525032,0.5869815462680052,0.086108,0.0012984205790112873,714.2503926436084,1.2870461541766067
230,300L_GN_2.0_6.0_25_225_trail_2\GS_53.033_GN_32_L_300_Trail_2_flip.png,2,300,53.03300858899106,32,4.732859370428185,0.6862036866070604,56.0748107525032,0.5869815462680052,0.086108,0.0012984205790112873,714.2503926436084,1.2870461541766067
231,300L_GN_2.0_6.0_25_225_trail_2\GS_53.033_GN_32_L_300_Trail_2_mirror_flip.png,2,300,53.03300858899106,32,4.732859370428185,0.6862036866070604,56.0748107525032,0.5869815462680052,0.086108,0.0012984205790112873,714.2503926436084,1.2870461541766067
232,300L_GN_2.0_6.0_25_225_trail_2\GS_52.223_GN_33_L_300_Trail_2_orig.png,2,300,52.223296786709355,33,3.306014935060342,0.6792020265359292,53.377994469392796,0.9723498563620767,0.07820200000000002,0.0016251203032391192,718.9579154466567,0.4743183789609841
233,300L_GN_2.0_6.0_25_225_trail_2\GS_52.223_GN_33_L_300_Trail_2_mirror.png,2,300,52.223296786709355,33,3.306014935060342,0.6792020265359292,53.377994469392796,0.9723498563620767,0.07820200000000002,0.0016251203032391192,718.9579154466567,0.4743183789609841
234,300L_GN_2.0_6.0_25_225_trail_2\GS_52.223_GN_33_L_300_Trail_2_flip.png,2,300,52.223296786709355,33,3.306014935060342,0.6792020265359292,53.377994469392796,0.9723498563620767,0.07820200000000002,0.0016251203032391192,718.9579154466567,0.4743183789609841
235,300L_GN_2.0_6.0_25_225_trail_2\GS_52.223_GN_33_L_300_Trail_2_mirror_flip.png,2,300,52.223296786709355,33,3.306014935060342,0.6792020265359292,53.377994469392796,0.9723498563620767,0.07820200000000002,0.0016251203032391192,718.9579154466567,0.4743183789609841
236,300L_GN_2.0_6.0_25_225_trail_2\GS_51.45_GN_34_L_300_Trail_2_orig.png,2,300,51.44957554275265,34,4.08751163370504,0.3262045600498641,54.850587833190936,0.4302718737492052,0.084054,0.001144859816746139,705.9617619173238,0.7637406198445801
237,300L_GN_2.0_6.0_25_225_trail_2\GS_51.45_GN_34_L_300_Trail_2_mirror.png,2,300,51.44957554275265,34,4.08751163370504,0.3262045600498641,54.850587833190936,0.4302718737492052,0.084054,0.001144859816746139,705.9617619173238,0.7637406198445801
238,300L_GN_2.0_6.0_25_225_trail_2\GS_51.45_GN_34_L_300_Trail_2_flip.png,2,300,51.44957554275265,34,4.08751163370504,0.3262045600498641,54.850587833190936,0.4302718737492052,0.084054,0.001144859816746139,705.9617619173238,0.7637406198445801
239,300L_GN_2.0_6.0_25_225_trail_2\GS_51.45_GN_34_L_300_Trail_2_mirror_flip.png,2,300,51.44957554275265,34,4.08751163370504,0.3262045600498641,54.850587833190936,0.4302718737492052,0.084054,0.001144859816746139,705.9617619173238,0.7637406198445801
240,300L_GN_2.0_6.0_25_225_trail_2\GS_50.709_GN_35_L_300_Trail_2_orig.png,2,300,50.709255283710995,35,3.748442062584476,0.3298578371193747,54.06834334293616,0.826174093316047,0.082456,0.001403732168185942,707.3569461545267,1.675155969178935
241,300L_GN_2.0_6.0_25_225_trail_2\GS_50.709_GN_35_L_300_Trail_2_mirror.png,2,300,50.709255283710995,35,3.748442062584476,0.3298578371193747,54.06834334293616,0.826174093316047,0.082456,0.001403732168185942,707.3569461545267,1.675155969178935
242,300L_GN_2.0_6.0_25_225_trail_2\GS_50.709_GN_35_L_300_Trail_2_flip.png,2,300,50.709255283710995,35,3.748442062584476,0.3298578371193747,54.06834334293616,0.826174093316047,0.082456,0.001403732168185942,707.3569461545267,1.675155969178935
243,300L_GN_2.0_6.0_25_225_trail_2\GS_50.709_GN_35_L_300_Trail_2_mirror_flip.png,2,300,50.709255283710995,35,3.748442062584476,0.3298578371193747,54.06834334293616,0.826174093316047,0.082456,0.001403732168185942,707.3569461545267,1.675155969178935
244,300L_GN_2.0_6.0_25_225_trail_2\GS_50.0_GN_36_L_300_Trail_2_orig.png,2,300,50.0,36,4.424077546873753,0.2981724797129657,52.26980085364348,0.7124709726431727,0.078866,0.0011571447619031943,706.9093327493835,1.138635856231952
245,300L_GN_2.0_6.0_25_225_trail_2\GS_50.0_GN_36_L_300_Trail_2_mirror.png,2,300,50.0,36,4.424077546873753,0.2981724797129657,52.26980085364348,0.7124709726431727,0.078866,0.0011571447619031943,706.9093327493835,1.138635856231952
246,300L_GN_2.0_6.0_25_225_trail_2\GS_50.0_GN_36_L_300_Trail_2_flip.png,2,300,50.0,36,4.424077546873753,0.2981724797129657,52.26980085364348,0.7124709726431727,0.078866,0.0011571447619031943,706.9093327493835,1.138635856231952
247,300L_GN_2.0_6.0_25_225_trail_2\GS_50.0_GN_36_L_300_Trail_2_mirror_flip.png,2,300,50.0,36,4.424077546873753,0.2981724797129657,52.26980085364348,0.7124709726431727,0.078866,0.0011571447619031943,706.9093327493835,1.138635856231952
248,300L_GN_2.0_6.0_25_225_trail_2\GS_49.32_GN_37_L_300_Trail_2_orig.png,2,300,49.31969619160719,37,4.3126234710032145,0.6508517326826118,57.49251340821729,0.3286086116059225,0.084376,0.0005917634662599637,726.5988752264909,0.8504848138915757
249,300L_GN_2.0_6.0_25_225_trail_2\GS_49.32_GN_37_L_300_Trail_2_mirror.png,2,300,49.31969619160719,37,4.3126234710032145,0.6508517326826118,57.49251340821729,0.3286086116059225,0.084376,0.0005917634662599637,726.5988752264909,0.8504848138915757
250,300L_GN_2.0_6.0_25_225_trail_2\GS_49.32_GN_37_L_300_Trail_2_flip.png,2,300,49.31969619160719,37,4.3126234710032145,0.6508517326826118,57.49251340821729,0.3286086116059225,0.084376,0.0005917634662599637,726.5988752264909,0.8504848138915757
251,300L_GN_2.0_6.0_25_225_trail_2\GS_49.32_GN_37_L_300_Trail_2_mirror_flip.png,2,300,49.31969619160719,37,4.3126234710032145,0.6508517326826118,57.49251340821729,0.3286086116059225,0.084376,0.0005917634662599637,726.5988752264909,0.8504848138915757
252,300L_GN_2.0_6.0_25_225_trail_2\GS_48.666_GN_38_L_300_Trail_2_orig.png,2,300,48.666426339228764,38,3.719775685525575,0.21774459306843744,49.03121368086265,0.342555856957317,0.075854,0.0006244549623471631,699.3074668405501,1.2586848323093949
253,300L_GN_2.0_6.0_25_225_trail_2\GS_48.666_GN_38_L_300_Trail_2_mirror.png,2,300,48.666426339228764,38,3.719775685525575,0.21774459306843744,49.03121368086265,0.342555856957317,0.075854,0.0006244549623471631,699.3074668405501,1.2586848323093949
254,300L_GN_2.0_6.0_25_225_trail_2\GS_48.666_GN_38_L_300_Trail_2_flip.png,2,300,48.666426339228764,38,3.719775685525575,0.21774459306843744,49.03121368086265,0.342555856957317,0.075854,0.0006244549623471631,699.3074668405501,1.2586848323093949
255,300L_GN_2.0_6.0_25_225_trail_2\GS_48.666_GN_38_L_300_Trail_2_mirror_flip.png,2,300,48.666426339228764,38,3.719775685525575,0.21774459306843744,49.03121368086265,0.342555856957317,0.075854,0.0006244549623471631,699.3074668405501,1.2586848323093949
256,300L_GN_2.0_6.0_25_225_trail_2\GS_48.038_GN_39_L_300_Trail_2_orig.png,2,300,48.03844614152614,39,4.308437157227927,0.10288077069525904,51.140718274947744,0.9039112276282608,0.077108,0.0013922413583858225,709.0226280170427,1.465623145499078
257,300L_GN_2.0_6.0_25_225_trail_2\GS_48.038_GN_39_L_300_Trail_2_mirror.png,2,300,48.03844614152614,39,4.308437157227927,0.10288077069525904,51.140718274947744,0.9039112276282608,0.077108,0.0013922413583858225,709.0226280170427,1.465623145499078
258,300L_GN_2.0_6.0_25_225_trail_2\GS_48.038_GN_39_L_300_Trail_2_flip.png,2,300,48.03844614152614,39,4.308437157227927,0.10288077069525904,51.140718274947744,0.9039112276282608,0.077108,0.0013922413583858225,709.0226280170427,1.465623145499078
259,300L_GN_2.0_6.0_25_225_trail_2\GS_48.038_GN_39_L_300_Trail_2_mirror_flip.png,2,300,48.03844614152614,39,4.308437157227927,0.10288077069525904,51.140718274947744,0.9039112276282608,0.077108,0.0013922413583858225,709.0226280170427,1.465623145499078
260,300L_GN_2.0_6.0_25_225_trail_2\GS_47.434_GN_40_L_300_Trail_2_orig.png,2,300,47.43416490252569,40,3.672390032696815,0.20468154235030395,50.33892789698963,0.3245948258502895,0.077212,0.0005007354590999115,693.089869736708,1.290595432903239
261,300L_GN_2.0_6.0_25_225_trail_2\GS_47.434_GN_40_L_300_Trail_2_mirror.png,2,300,47.43416490252569,40,3.672390032696815,0.20468154235030395,50.33892789698963,0.3245948258502895,0.077212,0.0005007354590999115,693.089869736708,1.290595432903239
262,300L_GN_2.0_6.0_25_225_trail_2\GS_47.434_GN_40_L_300_Trail_2_flip.png,2,300,47.43416490252569,40,3.672390032696815,0.20468154235030395,50.33892789698963,0.3245948258502895,0.077212,0.0005007354590999115,693.089869736708,1.290595432903239
263,300L_GN_2.0_6.0_25_225_trail_2\GS_47.434_GN_40_L_300_Trail_2_mirror_flip.png,2,300,47.43416490252569,40,3.672390032696815,0.20468154235030395,50.33892789698963,0.3245948258502895,0.077212,0.0005007354590999115,693.089869736708,1.290595432903239
264,300L_GN_2.0_6.0_25_225_trail_2\GS_46.852_GN_41_L_300_Trail_2_orig.png,2,300,46.85212856658182,41,3.7980293373123906,0.6078452219967476,53.293893077808754,1.4392524418992816,0.081072,0.002437485589700995,703.6877121518971,0.708685082669509
265,300L_GN_2.0_6.0_25_225_trail_2\GS_46.852_GN_41_L_300_Trail_2_mirror.png,2,300,46.85212856658182,41,3.7980293373123906,0.6078452219967476,53.293893077808754,1.4392524418992816,0.081072,0.002437485589700995,703.6877121518971,0.708685082669509
266,300L_GN_2.0_6.0_25_225_trail_2\GS_46.852_GN_41_L_300_Trail_2_flip.png,2,300,46.85212856658182,41,3.7980293373123906,0.6078452219967476,53.293893077808754,1.4392524418992816,0.081072,0.002437485589700995,703.6877121518971,0.708685082669509
267,300L_GN_2.0_6.0_25_225_trail_2\GS_46.852_GN_41_L_300_Trail_2_mirror_flip.png,2,300,46.85212856658182,41,3.7980293373123906,0.6078452219967476,53.293893077808754,1.4392524418992816,0.081072,0.002437485589700995,703.6877121518971,0.708685082669509
268,300L_GN_2.0_6.0_25_225_trail_2\GS_45.75_GN_43_L_300_Trail_2_orig.png,2,300,45.7495710997814,43,4.143446419489217,0.3521744099669342,50.454975775655285,0.7232501112792028,0.07614200000000002,0.0011668144668283823,717.1714547548112,1.6350605044022686
269,300L_GN_2.0_6.0_25_225_trail_2\GS_45.75_GN_43_L_300_Trail_2_mirror.png,2,300,45.7495710997814,43,4.143446419489217,0.3521744099669342,50.454975775655285,0.7232501112792028,0.07614200000000002,0.0011668144668283823,717.1714547548112,1.6350605044022686
270,300L_GN_2.0_6.0_25_225_trail_2\GS_45.75_GN_43_L_300_Trail_2_flip.png,2,300,45.7495710997814,43,4.143446419489217,0.3521744099669342,50.454975775655285,0.7232501112792028,0.07614200000000002,0.0011668144668283823,717.1714547548112,1.6350605044022686
271,300L_GN_2.0_6.0_25_225_trail_2\GS_45.75_GN_43_L_300_Trail_2_mirror_flip.png,2,300,45.7495710997814,43,4.143446419489217,0.3521744099669342,50.454975775655285,0.7232501112792028,0.07614200000000002,0.0011668144668283823,717.1714547548112,1.6350605044022686
272,300L_GN_2.0_6.0_25_225_trail_2\GS_45.227_GN_44_L_300_Trail_2_orig.png,2,300,45.22670168666454,44,3.0704569503951893,0.3061973928950351,55.88833067249245,0.3562045528271585,0.0849,0.0007655847438396346,702.9684844106137,1.3288092030654244
273,300L_GN_2.0_6.0_25_225_trail_2\GS_45.227_GN_44_L_300_Trail_2_mirror.png,2,300,45.22670168666454,44,3.0704569503951893,0.3061973928950351,55.88833067249245,0.3562045528271585,0.0849,0.0007655847438396346,702.9684844106137,1.3288092030654244
274,300L_GN_2.0_6.0_25_225_trail_2\GS_45.227_GN_44_L_300_Trail_2_flip.png,2,300,45.22670168666454,44,3.0704569503951893,0.3061973928950351,55.88833067249245,0.3562045528271585,0.0849,0.0007655847438396346,702.9684844106137,1.3288092030654244
275,300L_GN_2.0_6.0_25_225_trail_2\GS_45.227_GN_44_L_300_Trail_2_mirror_flip.png,2,300,45.22670168666454,44,3.0704569503951893,0.3061973928950351,55.88833067249245,0.3562045528271585,0.0849,0.0007655847438396346,702.9684844106137,1.3288092030654244
276,300L_GN_2.0_6.0_25_225_trail_2\GS_43.759_GN_47_L_300_Trail_2_orig.png,2,300,43.75949744936837,47,5.309634160184651,0.6579448391338756,53.05574566731439,0.5781428559020201,0.07925750000000001,0.001000159362301828,703.512791522583,1.669482506198559
277,300L_GN_2.0_6.0_25_225_trail_2\GS_43.759_GN_47_L_300_Trail_2_mirror.png,2,300,43.75949744936837,47,5.309634160184651,0.6579448391338756,53.05574566731439,0.5781428559020201,0.07925750000000001,0.001000159362301828,703.512791522583,1.669482506198559
278,300L_GN_2.0_6.0_25_225_trail_2\GS_43.759_GN_47_L_300_Trail_2_flip.png,2,300,43.75949744936837,47,5.309634160184651,0.6579448391338756,53.05574566731439,0.5781428559020201,0.07925750000000001,0.001000159362301828,703.512791522583,1.669482506198559
279,300L_GN_2.0_6.0_25_225_trail_2\GS_43.759_GN_47_L_300_Trail_2_mirror_flip.png,2,300,43.75949744936837,47,5.309634160184651,0.6579448391338756,53.05574566731439,0.5781428559020201,0.07925750000000001,0.001000159362301828,703.512791522583,1.669482506198559
280,300L_GN_2.0_6.0_25_225_trail_2\GS_43.301_GN_48_L_300_Trail_2_orig.png,2,300,43.30127018922194,48,3.15109827537855,0.19900365207761891,47.41467539042185,1.1581916881159047,0.07310000000000001,0.0020566283086644512,690.580072732447,0.8786677456624737
281,300L_GN_2.0_6.0_25_225_trail_2\GS_43.301_GN_48_L_300_Trail_2_mirror.png,2,300,43.30127018922194,48,3.15109827537855,0.19900365207761891,47.41467539042185,1.1581916881159047,0.07310000000000001,0.0020566283086644512,690.580072732447,0.8786677456624737
282,300L_GN_2.0_6.0_25_225_trail_2\GS_43.301_GN_48_L_300_Trail_2_flip.png,2,300,43.30127018922194,48,3.15109827537855,0.19900365207761891,47.41467539042185,1.1581916881159047,0.07310000000000001,0.0020566283086644512,690.580072732447,0.8786677456624737
283,300L_GN_2.0_6.0_25_225_trail_2\GS_43.301_GN_48_L_300_Trail_2_mirror_flip.png,2,300,43.30127018922194,48,3.15109827537855,0.19900365207761891,47.41467539042185,1.1581916881159047,0.07310000000000001,0.0020566283086644512,690.580072732447,0.8786677456624737
284,300L_GN_2.0_6.0_25_225_trail_2\GS_42.426_GN_50_L_300_Trail_2_orig.png,2,300,42.42640687119285,50,4.5252594931289325,0.2193177278043822,49.55452060158728,2.3225536647595293,0.07684,0.0038834713852428458,689.3869516506925,0.8127023585550315
285,300L_GN_2.0_6.0_25_225_trail_2\GS_42.426_GN_50_L_300_Trail_2_mirror.png,2,300,42.42640687119285,50,4.5252594931289325,0.2193177278043822,49.55452060158728,2.3225536647595293,0.07684,0.0038834713852428458,689.3869516506925,0.8127023585550315
286,300L_GN_2.0_6.0_25_225_trail_2\GS_42.426_GN_50_L_300_Trail_2_flip.png,2,300,42.42640687119285,50,4.5252594931289325,0.2193177278043822,49.55452060158728,2.3225536647595293,0.07684,0.0038834713852428458,689.3869516506925,0.8127023585550315
287,300L_GN_2.0_6.0_25_225_trail_2\GS_42.426_GN_50_L_300_Trail_2_mirror_flip.png,2,300,42.42640687119285,50,4.5252594931289325,0.2193177278043822,49.55452060158728,2.3225536647595293,0.07684,0.0038834713852428458,689.3869516506925,0.8127023585550315
288,300L_GN_2.0_6.0_25_225_trail_2\GS_41.603_GN_52_L_300_Trail_2_orig.png,2,300,41.60251471689219,52,4.234575469769518,0.3099951067732309,49.47868679398984,2.28499197820821,0.075402,0.003598257355998868,690.203409510716,0.775655698114442
289,300L_GN_2.0_6.0_25_225_trail_2\GS_41.603_GN_52_L_300_Trail_2_mirror.png,2,300,41.60251471689219,52,4.234575469769518,0.3099951067732309,49.47868679398984,2.28499197820821,0.075402,0.003598257355998868,690.203409510716,0.775655698114442
290,300L_GN_2.0_6.0_25_225_trail_2\GS_41.603_GN_52_L_300_Trail_2_flip.png,2,300,41.60251471689219,52,4.234575469769518,0.3099951067732309,49.47868679398984,2.28499197820821,0.075402,0.003598257355998868,690.203409510716,0.775655698114442
291,300L_GN_2.0_6.0_25_225_trail_2\GS_41.603_GN_52_L_300_Trail_2_mirror_flip.png,2,300,41.60251471689219,52,4.234575469769518,0.3099951067732309,49.47868679398984,2.28499197820821,0.075402,0.003598257355998868,690.203409510716,0.775655698114442
292,300L_GN_2.0_6.0_25_225_trail_2\GS_41.208_GN_53_L_300_Trail_2_orig.png,2,300,41.20816918460671,53,4.5186542169889075,0.46317695868596037,48.69391016450759,0.3171046100516698,0.073576,0.0007450530182476964,701.2639249895875,1.612039821697599
293,300L_GN_2.0_6.0_25_225_trail_2\GS_41.208_GN_53_L_300_Trail_2_mirror.png,2,300,41.20816918460671,53,4.5186542169889075,0.46317695868596037,48.69391016450759,0.3171046100516698,0.073576,0.0007450530182476964,701.2639249895875,1.612039821697599
294,300L_GN_2.0_6.0_25_225_trail_2\GS_41.208_GN_53_L_300_Trail_2_flip.png,2,300,41.20816918460671,53,4.5186542169889075,0.46317695868596037,48.69391016450759,0.3171046100516698,0.073576,0.0007450530182476964,701.2639249895875,1.612039821697599
295,300L_GN_2.0_6.0_25_225_trail_2\GS_41.208_GN_53_L_300_Trail_2_mirror_flip.png,2,300,41.20816918460671,53,4.5186542169889075,0.46317695868596037,48.69391016450759,0.3171046100516698,0.073576,0.0007450530182476964,701.2639249895875,1.612039821697599
296,300L_GN_2.0_6.0_25_225_trail_2\GS_40.089_GN_56_L_300_Trail_2_orig.png,2,300,40.08918628686366,56,3.211981575738565,0.10431730142018852,52.88640841711703,1.297638061781053,0.08197,0.00221173009203203,687.2105776170566,1.1671823473834
297,300L_GN_2.0_6.0_25_225_trail_2\GS_40.089_GN_56_L_300_Trail_2_mirror.png,2,300,40.08918628686366,56,3.211981575738565,0.10431730142018852,52.88640841711703,1.297638061781053,0.08197,0.00221173009203203,687.2105776170566,1.1671823473834
298,300L_GN_2.0_6.0_25_225_trail_2\GS_40.089_GN_56_L_300_Trail_2_flip.png,2,300,40.08918628686366,56,3.211981575738565,0.10431730142018852,52.88640841711703,1.297638061781053,0.08197,0.00221173009203203,687.2105776170566,1.1671823473834
299,300L_GN_2.0_6.0_25_225_trail_2\GS_40.089_GN_56_L_300_Trail_2_mirror_flip.png,2,300,40.08918628686366,56,3.211981575738565,0.10431730142018852,52.88640841711703,1.297638061781053,0.08197,0.00221173009203203,687.2105776170566,1.1671823473834
300,300L_GN_2.0_6.0_25_225_trail_2\GS_39.392_GN_58_L_300_Trail_2_orig.png,2,300,39.391929857916764,58,3.8959124558875766,0.4605366409632893,51.38667191965791,0.22016715608098794,0.078672,0.0004148927572276955,701.7622314955809,1.3113599069136943
301,300L_GN_2.0_6.0_25_225_trail_2\GS_39.392_GN_58_L_300_Trail_2_mirror.png,2,300,39.391929857916764,58,3.8959124558875766,0.4605366409632893,51.38667191965791,0.22016715608098794,0.078672,0.0004148927572276955,701.7622314955809,1.3113599069136943
302,300L_GN_2.0_6.0_25_225_trail_2\GS_39.392_GN_58_L_300_Trail_2_flip.png,2,300,39.391929857916764,58,3.8959124558875766,0.4605366409632893,51.38667191965791,0.22016715608098794,0.078672,0.0004148927572276955,701.7622314955809,1.3113599069136943
303,300L_GN_2.0_6.0_25_225_trail_2\GS_39.392_GN_58_L_300_Trail_2_mirror_flip.png,2,300,39.391929857916764,58,3.8959124558875766,0.4605366409632893,51.38667191965791,0.22016715608098794,0.078672,0.0004148927572276955,701.7622314955809,1.3113599069136943
304,300L_GN_2.0_6.0_25_225_trail_2\GS_38.73_GN_60_L_300_Trail_2_orig.png,2,300,38.72983346207417,60,3.2815148993857948,0.18653832395825318,44.07289588008716,0.8217310259346253,0.06979750000000001,0.0012626435561947028,661.2971859262499,1.8556521985342826
305,300L_GN_2.0_6.0_25_225_trail_2\GS_38.73_GN_60_L_300_Trail_2_mirror.png,2,300,38.72983346207417,60,3.2815148993857948,0.18653832395825318,44.07289588008716,0.8217310259346253,0.06979750000000001,0.0012626435561947028,661.2971859262499,1.8556521985342826
306,300L_GN_2.0_6.0_25_225_trail_2\GS_38.73_GN_60_L_300_Trail_2_flip.png,2,300,38.72983346207417,60,3.2815148993857948,0.18653832395825318,44.07289588008716,0.8217310259346253,0.06979750000000001,0.0012626435561947028,661.2971859262499,1.8556521985342826
307,300L_GN_2.0_6.0_25_225_trail_2\GS_38.73_GN_60_L_300_Trail_2_mirror_flip.png,2,300,38.72983346207417,60,3.2815148993857948,0.18653832395825318,44.07289588008716,0.8217310259346253,0.06979750000000001,0.0012626435561947028,661.2971859262499,1.8556521985342826
308,300L_GN_2.0_6.0_25_225_trail_2\GS_38.1_GN_62_L_300_Trail_2_orig.png,2,300,38.10003810005715,62,3.2247433164505046,0.3437909214354988,52.05749332191156,0.9176297598332737,0.07873000000000001,0.0015100331122197303,696.9697787011173,1.8663967639075494
309,300L_GN_2.0_6.0_25_225_trail_2\GS_38.1_GN_62_L_300_Trail_2_mirror.png,2,300,38.10003810005715,62,3.2247433164505046,0.3437909214354988,52.05749332191156,0.9176297598332737,0.07873000000000001,0.0015100331122197303,696.9697787011173,1.8663967639075494
310,300L_GN_2.0_6.0_25_225_trail_2\GS_38.1_GN_62_L_300_Trail_2_flip.png,2,300,38.10003810005715,62,3.2247433164505046,0.3437909214354988,52.05749332191156,0.9176297598332737,0.07873000000000001,0.0015100331122197303,696.9697787011173,1.8663967639075494
311,300L_GN_2.0_6.0_25_225_trail_2\GS_38.1_GN_62_L_300_Trail_2_mirror_flip.png,2,300,38.10003810005715,62,3.2247433164505046,0.3437909214354988,52.05749332191156,0.9176297598332737,0.07873000000000001,0.0015100331122197303,696.9697787011173,1.8663967639075494
312,300L_GN_2.0_6.0_25_225_trail_2\GS_37.5_GN_64_L_300_Trail_2_orig.png,2,300,37.5,64,4.400099618294935,0.2932974689370876,47.78502109942386,1.0292875295435269,0.074634,0.0016451942134593112,680.3219240940424,1.6381170963306715
313,300L_GN_2.0_6.0_25_225_trail_2\GS_37.5_GN_64_L_300_Trail_2_mirror.png,2,300,37.5,64,4.400099618294935,0.2932974689370876,47.78502109942386,1.0292875295435269,0.074634,0.0016451942134593112,680.3219240940424,1.6381170963306715
314,300L_GN_2.0_6.0_25_225_trail_2\GS_37.5_GN_64_L_300_Trail_2_flip.png,2,300,37.5,64,4.400099618294935,0.2932974689370876,47.78502109942386,1.0292875295435269,0.074634,0.0016451942134593112,680.3219240940424,1.6381170963306715
315,300L_GN_2.0_6.0_25_225_trail_2\GS_37.5_GN_64_L_300_Trail_2_mirror_flip.png,2,300,37.5,64,4.400099618294935,0.2932974689370876,47.78502109942386,1.0292875295435269,0.074634,0.0016451942134593112,680.3219240940424,1.6381170963306715
316,300L_GN_2.0_6.0_25_225_trail_2\GS_36.927_GN_66_L_300_Trail_2_orig.png,2,300,36.927447293799815,66,3.1124729394945083,0.24949497143491056,49.68048796134483,0.5063211009241907,0.07683999999999999,0.0009560543917581255,682.8261937483297,1.8010349445176648
317,300L_GN_2.0_6.0_25_225_trail_2\GS_36.927_GN_66_L_300_Trail_2_mirror.png,2,300,36.927447293799815,66,3.1124729394945083,0.24949497143491056,49.68048796134483,0.5063211009241907,0.07683999999999999,0.0009560543917581255,682.8261937483297,1.8010349445176648
318,300L_GN_2.0_6.0_25_225_trail_2\GS_36.927_GN_66_L_300_Trail_2_flip.png,2,300,36.927447293799815,66,3.1124729394945083,0.24949497143491056,49.68048796134483,0.5063211009241907,0.07683999999999999,0.0009560543917581255,682.8261937483297,1.8010349445176648
319,300L_GN_2.0_6.0_25_225_trail_2\GS_36.927_GN_66_L_300_Trail_2_mirror_flip.png,2,300,36.927447293799815,66,3.1124729394945083,0.24949497143491056,49.68048796134483,0.5063211009241907,0.07683999999999999,0.0009560543917581255,682.8261937483297,1.8010349445176648
320,300L_GN_2.0_6.0_25_225_trail_2\GS_36.116_GN_69_L_300_Trail_2_orig.png,2,300,36.11575592573076,69,3.297654311031812,0.2352259438373314,47.1460295583207,0.7380483710199226,0.07353200000000001,0.0014083380276055904,672.3320545454816,1.2129098730882004
321,300L_GN_2.0_6.0_25_225_trail_2\GS_36.116_GN_69_L_300_Trail_2_mirror.png,2,300,36.11575592573076,69,3.297654311031812,0.2352259438373314,47.1460295583207,0.7380483710199226,0.07353200000000001,0.0014083380276055904,672.3320545454816,1.2129098730882004
322,300L_GN_2.0_6.0_25_225_trail_2\GS_36.116_GN_69_L_300_Trail_2_flip.png,2,300,36.11575592573076,69,3.297654311031812,0.2352259438373314,47.1460295583207,0.7380483710199226,0.07353200000000001,0.0014083380276055904,672.3320545454816,1.2129098730882004
323,300L_GN_2.0_6.0_25_225_trail_2\GS_36.116_GN_69_L_300_Trail_2_mirror_flip.png,2,300,36.11575592573076,69,3.297654311031812,0.2352259438373314,47.1460295583207,0.7380483710199226,0.07353200000000001,0.0014083380276055904,672.3320545454816,1.2129098730882004
324,300L_GN_2.0_6.0_25_225_trail_2\GS_34.874_GN_74_L_300_Trail_2_orig.png,2,300,34.87429162314579,74,2.948897845233811,0.32082180017597167,48.637763180652215,0.5498257169901251,0.07574600000000001,0.0009617400896292099,682.6220889165296,1.0875415282465701
325,300L_GN_2.0_6.0_25_225_trail_2\GS_34.874_GN_74_L_300_Trail_2_mirror.png,2,300,34.87429162314579,74,2.948897845233811,0.32082180017597167,48.637763180652215,0.5498257169901251,0.07574600000000001,0.0009617400896292099,682.6220889165296,1.0875415282465701
326,300L_GN_2.0_6.0_25_225_trail_2\GS_34.874_GN_74_L_300_Trail_2_flip.png,2,300,34.87429162314579,74,2.948897845233811,0.32082180017597167,48.637763180652215,0.5498257169901251,0.07574600000000001,0.0009617400896292099,682.6220889165296,1.0875415282465701
327,300L_GN_2.0_6.0_25_225_trail_2\GS_34.874_GN_74_L_300_Trail_2_mirror_flip.png,2,300,34.87429162314579,74,2.948897845233811,0.32082180017597167,48.637763180652215,0.5498257169901251,0.07574600000000001,0.0009617400896292099,682.6220889165296,1.0875415282465701
328,300L_GN_2.0_6.0_25_225_trail_2\GS_33.968_GN_78_L_300_Trail_2_orig.png,2,300,33.96831102433787,78,4.566657268120124,0.30047079806087934,53.70739849557841,0.8305177881073945,0.08345000000000001,0.0014721141260106145,675.9668917208166,1.1747132747449438
329,300L_GN_2.0_6.0_25_225_trail_2\GS_33.968_GN_78_L_300_Trail_2_mirror.png,2,300,33.96831102433787,78,4.566657268120124,0.30047079806087934,53.70739849557841,0.8305177881073945,0.08345000000000001,0.0014721141260106145,675.9668917208166,1.1747132747449438
330,300L_GN_2.0_6.0_25_225_trail_2\GS_33.968_GN_78_L_300_Trail_2_flip.png,2,300,33.96831102433787,78,4.566657268120124,0.30047079806087934,53.70739849557841,0.8305177881073945,0.08345000000000001,0.0014721141260106145,675.9668917208166,1.1747132747449438
331,300L_GN_2.0_6.0_25_225_trail_2\GS_33.968_GN_78_L_300_Trail_2_mirror_flip.png,2,300,33.96831102433787,78,4.566657268120124,0.30047079806087934,53.70739849557841,0.8305177881073945,0.08345000000000001,0.0014721141260106145,675.9668917208166,1.1747132747449438
332,300L_GN_2.0_6.0_25_225_trail_2\GS_33.129_GN_82_L_300_Trail_2_orig.png,2,300,33.12945782245396,82,3.87434325870207,0.21011982962390466,47.23593656205276,0.699314202997168,0.073218,0.0011896789482881483,682.7222682732777,1.1776191031233854
333,300L_GN_2.0_6.0_25_225_trail_2\GS_33.129_GN_82_L_300_Trail_2_mirror.png,2,300,33.12945782245396,82,3.87434325870207,0.21011982962390466,47.23593656205276,0.699314202997168,0.073218,0.0011896789482881483,682.7222682732777,1.1776191031233854
334,300L_GN_2.0_6.0_25_225_trail_2\GS_33.129_GN_82_L_300_Trail_2_flip.png,2,300,33.12945782245396,82,3.87434325870207,0.21011982962390466,47.23593656205276,0.699314202997168,0.073218,0.0011896789482881483,682.7222682732777,1.1776191031233854
335,300L_GN_2.0_6.0_25_225_trail_2\GS_33.129_GN_82_L_300_Trail_2_mirror_flip.png,2,300,33.12945782245396,82,3.87434325870207,0.21011982962390466,47.23593656205276,0.699314202997168,0.073218,0.0011896789482881483,682.7222682732777,1.1776191031233854
336,300L_GN_2.0_6.0_25_225_trail_2\GS_32.163_GN_87_L_300_Trail_2_orig.png,2,300,32.163376045133845,87,3.5823949017050887,0.2311203633797266,47.76822334380562,0.6206263154548785,0.07405,0.0014785127662621023,671.8876027787488,1.0316514776633152
337,300L_GN_2.0_6.0_25_225_trail_2\GS_32.163_GN_87_L_300_Trail_2_mirror.png,2,300,32.163376045133845,87,3.5823949017050887,0.2311203633797266,47.76822334380562,0.6206263154548785,0.07405,0.0014785127662621023,671.8876027787488,1.0316514776633152
338,300L_GN_2.0_6.0_25_225_trail_2\GS_32.163_GN_87_L_300_Trail_2_flip.png,2,300,32.163376045133845,87,3.5823949017050887,0.2311203633797266,47.76822334380562,0.6206263154548785,0.07405,0.0014785127662621023,671.8876027787488,1.0316514776633152
339,300L_GN_2.0_6.0_25_225_trail_2\GS_32.163_GN_87_L_300_Trail_2_mirror_flip.png,2,300,32.163376045133845,87,3.5823949017050887,0.2311203633797266,47.76822334380562,0.6206263154548785,0.07405,0.0014785127662621023,671.8876027787488,1.0316514776633152
340,300L_GN_2.0_6.0_25_225_trail_2\GS_31.449_GN_91_L_300_Trail_2_orig.png,2,300,31.44854510165755,91,3.803617973043616,0.6425005156271906,50.071336709891426,0.8968852218573267,0.08141800000000002,0.0017004517046949645,653.7926315570842,1.4434442490929866
341,300L_GN_2.0_6.0_25_225_trail_2\GS_31.449_GN_91_L_300_Trail_2_mirror.png,2,300,31.44854510165755,91,3.803617973043616,0.6425005156271906,50.071336709891426,0.8968852218573267,0.08141800000000002,0.0017004517046949645,653.7926315570842,1.4434442490929866
342,300L_GN_2.0_6.0_25_225_trail_2\GS_31.449_GN_91_L_300_Trail_2_flip.png,2,300,31.44854510165755,91,3.803617973043616,0.6425005156271906,50.071336709891426,0.8968852218573267,0.08141800000000002,0.0017004517046949645,653.7926315570842,1.4434442490929866
343,300L_GN_2.0_6.0_25_225_trail_2\GS_31.449_GN_91_L_300_Trail_2_mirror_flip.png,2,300,31.44854510165755,91,3.803617973043616,0.6425005156271906,50.071336709891426,0.8968852218573267,0.08141800000000002,0.0017004517046949645,653.7926315570842,1.4434442490929866
344,300L_GN_2.0_6.0_25_225_trail_2\GS_30.779_GN_95_L_300_Trail_2_orig.png,2,300,30.779350562554626,95,3.7508649551347437,0.06925424554513795,52.52618127708515,0.5893607345493381,0.084764,0.0009254750131689142,656.1101491359065,0.9741286248563777
345,300L_GN_2.0_6.0_25_225_trail_2\GS_30.779_GN_95_L_300_Trail_2_mirror.png,2,300,30.779350562554626,95,3.7508649551347437,0.06925424554513795,52.52618127708515,0.5893607345493381,0.084764,0.0009254750131689142,656.1101491359065,0.9741286248563777
346,300L_GN_2.0_6.0_25_225_trail_2\GS_30.779_GN_95_L_300_Trail_2_flip.png,2,300,30.779350562554626,95,3.7508649551347437,0.06925424554513795,52.52618127708515,0.5893607345493381,0.084764,0.0009254750131689142,656.1101491359065,0.9741286248563777
347,300L_GN_2.0_6.0_25_225_trail_2\GS_30.779_GN_95_L_300_Trail_2_mirror_flip.png,2,300,30.779350562554626,95,3.7508649551347437,0.06925424554513795,52.52618127708515,0.5893607345493381,0.084764,0.0009254750131689142,656.1101491359065,0.9741286248563777
348,300L_GN_2.0_6.0_25_225_trail_2\GS_30.0_GN_100_L_300_Trail_2_orig.png,2,300,30.0,100,3.879864247754038,0.9858482822993738,44.93285461678661,1.205040928108053,0.072018,0.0019908530834795452,653.7096076977712,0.9309491200897021
349,300L_GN_2.0_6.0_25_225_trail_2\GS_30.0_GN_100_L_300_Trail_2_mirror.png,2,300,30.0,100,3.879864247754038,0.9858482822993738,44.93285461678661,1.205040928108053,0.072018,0.0019908530834795452,653.7096076977712,0.9309491200897021
350,300L_GN_2.0_6.0_25_225_trail_2\GS_30.0_GN_100_L_300_Trail_2_flip.png,2,300,30.0,100,3.879864247754038,0.9858482822993738,44.93285461678661,1.205040928108053,0.072018,0.0019908530834795452,653.7096076977712,0.9309491200897021
351,300L_GN_2.0_6.0_25_225_trail_2\GS_30.0_GN_100_L_300_Trail_2_mirror_flip.png,2,300,30.0,100,3.879864247754038,0.9858482822993738,44.93285461678661,1.205040928108053,0.072018,0.0019908530834795452,653.7096076977712,0.9309491200897021
352,300L_GN_2.0_6.0_25_225_trail_2\GS_29.139_GN_106_L_300_Trail_2_orig.png,2,300,29.138575870717926,106,4.430298224714879,0.5797177683448429,52.77068449245171,1.2341750987697107,0.08552400000000002,0.0023324630758063455,656.4972434909716,1.419481779468574
353,300L_GN_2.0_6.0_25_225_trail_2\GS_29.139_GN_106_L_300_Trail_2_mirror.png,2,300,29.138575870717926,106,4.430298224714879,0.5797177683448429,52.77068449245171,1.2341750987697107,0.08552400000000002,0.0023324630758063455,656.4972434909716,1.419481779468574
354,300L_GN_2.0_6.0_25_225_trail_2\GS_29.139_GN_106_L_300_Trail_2_flip.png,2,300,29.138575870717926,106,4.430298224714879,0.5797177683448429,52.77068449245171,1.2341750987697107,0.08552400000000002,0.0023324630758063455,656.4972434909716,1.419481779468574
355,300L_GN_2.0_6.0_25_225_trail_2\GS_29.139_GN_106_L_300_Trail_2_mirror_flip.png,2,300,29.138575870717926,106,4.430298224714879,0.5797177683448429,52.77068449245171,1.2341750987697107,0.08552400000000002,0.0023324630758063455,656.4972434909716,1.419481779468574
356,300L_GN_2.0_6.0_25_225_trail_2\GS_28.347_GN_112_L_300_Trail_2_orig.png,2,300,28.34733547569204,112,3.7940115734698345,0.2666034876193536,50.12577236725375,1.13320634382111,0.07926600000000002,0.0017168412856172822,663.9231345565803,1.2632719166635218
357,300L_GN_2.0_6.0_25_225_trail_2\GS_28.347_GN_112_L_300_Trail_2_mirror.png,2,300,28.34733547569204,112,3.7940115734698345,0.2666034876193536,50.12577236725375,1.13320634382111,0.07926600000000002,0.0017168412856172822,663.9231345565803,1.2632719166635218
358,300L_GN_2.0_6.0_25_225_trail_2\GS_28.347_GN_112_L_300_Trail_2_flip.png,2,300,28.34733547569204,112,3.7940115734698345,0.2666034876193536,50.12577236725375,1.13320634382111,0.07926600000000002,0.0017168412856172822,663.9231345565803,1.2632719166635218
359,300L_GN_2.0_6.0_25_225_trail_2\GS_28.347_GN_112_L_300_Trail_2_mirror_flip.png,2,300,28.34733547569204,112,3.7940115734698345,0.2666034876193536,50.12577236725375,1.13320634382111,0.07926600000000002,0.0017168412856172822,663.9231345565803,1.2632719166635218
360,300L_GN_2.0_6.0_25_225_trail_2\GS_27.501_GN_119_L_300_Trail_2_orig.png,2,300,27.50095491084634,119,3.875180307594602,0.5426847357332479,52.00585343169722,0.9270292675932725,0.082082,0.0015533885540971362,661.1137371043875,2.205972161627847
361,300L_GN_2.0_6.0_25_225_trail_2\GS_27.501_GN_119_L_300_Trail_2_mirror.png,2,300,27.50095491084634,119,3.875180307594602,0.5426847357332479,52.00585343169722,0.9270292675932725,0.082082,0.0015533885540971362,661.1137371043875,2.205972161627847
362,300L_GN_2.0_6.0_25_225_trail_2\GS_27.501_GN_119_L_300_Trail_2_flip.png,2,300,27.50095491084634,119,3.875180307594602,0.5426847357332479,52.00585343169722,0.9270292675932725,0.082082,0.0015533885540971362,661.1137371043875,2.205972161627847
363,300L_GN_2.0_6.0_25_225_trail_2\GS_27.501_GN_119_L_300_Trail_2_mirror_flip.png,2,300,27.50095491084634,119,3.875180307594602,0.5426847357332479,52.00585343169722,0.9270292675932725,0.082082,0.0015533885540971362,661.1137371043875,2.205972161627847
364,300L_GN_2.0_6.0_25_225_trail_2\GS_26.726_GN_126_L_300_Trail_2_orig.png,2,300,26.726124191242437,126,2.7141653329485647,0.49606241616989877,45.955829100040496,0.7285223640826172,0.072938,0.0012950274128372742,652.2230403273334,1.1034458987077136
365,300L_GN_2.0_6.0_25_225_trail_2\GS_26.726_GN_126_L_300_Trail_2_mirror.png,2,300,26.726124191242437,126,2.7141653329485647,0.49606241616989877,45.955829100040496,0.7285223640826172,0.072938,0.0012950274128372742,652.2230403273334,1.1034458987077136
366,300L_GN_2.0_6.0_25_225_trail_2\GS_26.726_GN_126_L_300_Trail_2_flip.png,2,300,26.726124191242437,126,2.7141653329485647,0.49606241616989877,45.955829100040496,0.7285223640826172,0.072938,0.0012950274128372742,652.2230403273334,1.1034458987077136
367,300L_GN_2.0_6.0_25_225_trail_2\GS_26.726_GN_126_L_300_Trail_2_mirror_flip.png,2,300,26.726124191242437,126,2.7141653329485647,0.49606241616989877,45.955829100040496,0.7285223640826172,0.072938,0.0012950274128372742,652.2230403273334,1.1034458987077136
368,300L_GN_2.0_6.0_25_225_trail_2\GS_26.112_GN_132_L_300_Trail_2_orig.png,2,300,26.111648393354677,132,3.6034905102748995,0.2656531453405232,47.152559528238825,1.14710008230577,0.076654,0.002104781223785502,661.2754391128567,1.632418139301257
369,300L_GN_2.0_6.0_25_225_trail_2\GS_26.112_GN_132_L_300_Trail_2_mirror.png,2,300,26.111648393354677,132,3.6034905102748995,0.2656531453405232,47.152559528238825,1.14710008230577,0.076654,0.002104781223785502,661.2754391128567,1.632418139301257
370,300L_GN_2.0_6.0_25_225_trail_2\GS_26.112_GN_132_L_300_Trail_2_flip.png,2,300,26.111648393354677,132,3.6034905102748995,0.2656531453405232,47.152559528238825,1.14710008230577,0.076654,0.002104781223785502,661.2754391128567,1.632418139301257
371,300L_GN_2.0_6.0_25_225_trail_2\GS_26.112_GN_132_L_300_Trail_2_mirror_flip.png,2,300,26.111648393354677,132,3.6034905102748995,0.2656531453405232,47.152559528238825,1.14710008230577,0.076654,0.002104781223785502,661.2754391128567,1.632418139301257
372,300L_GN_2.0_6.0_25_225_trail_2\GS_25.0_GN_144_L_300_Trail_2_orig.png,2,300,25.0,144,3.7983010557066605,0.5961473543558657,49.49200998852045,1.2313378184658756,0.0796,0.0019922750814081883,648.3389320300207,1.747787710212723
373,300L_GN_2.0_6.0_25_225_trail_2\GS_25.0_GN_144_L_300_Trail_2_mirror.png,2,300,25.0,144,3.7983010557066605,0.5961473543558657,49.49200998852045,1.2313378184658756,0.0796,0.0019922750814081883,648.3389320300207,1.747787710212723
374,300L_GN_2.0_6.0_25_225_trail_2\GS_25.0_GN_144_L_300_Trail_2_flip.png,2,300,25.0,144,3.7983010557066605,0.5961473543558657,49.49200998852045,1.2313378184658756,0.0796,0.0019922750814081883,648.3389320300207,1.747787710212723
375,300L_GN_2.0_6.0_25_225_trail_2\GS_25.0_GN_144_L_300_Trail_2_mirror_flip.png,2,300,25.0,144,3.7983010557066605,0.5961473543558657,49.49200998852045,1.2313378184658756,0.0796,0.0019922750814081883,648.3389320300207,1.747787710212723
376,300L_GN_2.0_6.0_25_225_trail_2\GS_24.333_GN_152_L_300_Trail_2_orig.png,2,300,24.333213169614382,152,4.2094313001326125,0.41152176003864066,51.560491367193414,0.6879190065423684,0.083834,0.001582562479019393,657.9970231083405,0.8188010462759353
377,300L_GN_2.0_6.0_25_225_trail_2\GS_24.333_GN_152_L_300_Trail_2_mirror.png,2,300,24.333213169614382,152,4.2094313001326125,0.41152176003864066,51.560491367193414,0.6879190065423684,0.083834,0.001582562479019393,657.9970231083405,0.8188010462759353
378,300L_GN_2.0_6.0_25_225_trail_2\GS_24.333_GN_152_L_300_Trail_2_flip.png,2,300,24.333213169614382,152,4.2094313001326125,0.41152176003864066,51.560491367193414,0.6879190065423684,0.083834,0.001582562479019393,657.9970231083405,0.8188010462759353
379,300L_GN_2.0_6.0_25_225_trail_2\GS_24.333_GN_152_L_300_Trail_2_mirror_flip.png,2,300,24.333213169614382,152,4.2094313001326125,0.41152176003864066,51.560491367193414,0.6879190065423684,0.083834,0.001582562479019393,657.9970231083405,0.8188010462759353
380,300L_GN_2.0_6.0_25_225_trail_2\GS_23.717_GN_160_L_300_Trail_2_orig.png,2,300,23.717082451262844,160,4.805526437674671,0.39247236885781533,48.125933480681276,0.7755175554811534,0.07829749999999999,0.0012177104540899689,647.7320928408132,0.9157182549815023
381,300L_GN_2.0_6.0_25_225_trail_2\GS_23.717_GN_160_L_300_Trail_2_mirror.png,2,300,23.717082451262844,160,4.805526437674671,0.39247236885781533,48.125933480681276,0.7755175554811534,0.07829749999999999,0.0012177104540899689,647.7320928408132,0.9157182549815023
382,300L_GN_2.0_6.0_25_225_trail_2\GS_23.717_GN_160_L_300_Trail_2_flip.png,2,300,23.717082451262844,160,4.805526437674671,0.39247236885781533,48.125933480681276,0.7755175554811534,0.07829749999999999,0.0012177104540899689,647.7320928408132,0.9157182549815023
383,300L_GN_2.0_6.0_25_225_trail_2\GS_23.717_GN_160_L_300_Trail_2_mirror_flip.png,2,300,23.717082451262844,160,4.805526437674671,0.39247236885781533,48.125933480681276,0.7755175554811534,0.07829749999999999,0.0012177104540899689,647.7320928408132,0.9157182549815023
384,300L_GN_2.0_6.0_25_225_trail_2\GS_23.146_GN_168_L_300_Trail_2_orig.png,2,300,23.145502494313785,168,4.343257912307303,0.5324205615231957,51.24699350438209,0.4099560935028434,0.085168,0.0007009536361272403,635.0116745560895,1.2906405361610176
385,300L_GN_2.0_6.0_25_225_trail_2\GS_23.146_GN_168_L_300_Trail_2_mirror.png,2,300,23.145502494313785,168,4.343257912307303,0.5324205615231957,51.24699350438209,0.4099560935028434,0.085168,0.0007009536361272403,635.0116745560895,1.2906405361610176
386,300L_GN_2.0_6.0_25_225_trail_2\GS_23.146_GN_168_L_300_Trail_2_flip.png,2,300,23.145502494313785,168,4.343257912307303,0.5324205615231957,51.24699350438209,0.4099560935028434,0.085168,0.0007009536361272403,635.0116745560895,1.2906405361610176
387,300L_GN_2.0_6.0_25_225_trail_2\GS_23.146_GN_168_L_300_Trail_2_mirror_flip.png,2,300,23.145502494313785,168,4.343257912307303,0.5324205615231957,51.24699350438209,0.4099560935028434,0.085168,0.0007009536361272403,635.0116745560895,1.2906405361610176
388,300L_GN_2.0_6.0_25_225_trail_2\GS_22.486_GN_178_L_300_Trail_2_orig.png,2,300,22.48595066987584,178,3.766682908084435,0.34621811760100996,45.12180603870505,0.7853068176778814,0.072494,0.0012818361829812753,651.607489275166,1.827005668544695
389,300L_GN_2.0_6.0_25_225_trail_2\GS_22.486_GN_178_L_300_Trail_2_mirror.png,2,300,22.48595066987584,178,3.766682908084435,0.34621811760100996,45.12180603870505,0.7853068176778814,0.072494,0.0012818361829812753,651.607489275166,1.827005668544695
390,300L_GN_2.0_6.0_25_225_trail_2\GS_22.486_GN_178_L_300_Trail_2_flip.png,2,300,22.48595066987584,178,3.766682908084435,0.34621811760100996,45.12180603870505,0.7853068176778814,0.072494,0.0012818361829812753,651.607489275166,1.827005668544695
391,300L_GN_2.0_6.0_25_225_trail_2\GS_22.486_GN_178_L_300_Trail_2_mirror_flip.png,2,300,22.48595066987584,178,3.766682908084435,0.34621811760100996,45.12180603870505,0.7853068176778814,0.072494,0.0012818361829812753,651.607489275166,1.827005668544695
392,300L_GN_2.0_6.0_25_225_trail_2\GS_21.213_GN_200_L_300_Trail_2_orig.png,2,300,21.213203435596427,200,3.517016261307377,0.197069126254668,50.75765374295425,0.5787565957269125,0.083044,0.0008653230610586994,641.5452584764244,1.5205962153743349
393,300L_GN_2.0_6.0_25_225_trail_2\GS_21.213_GN_200_L_300_Trail_2_mirror.png,2,300,21.213203435596427,200,3.517016261307377,0.197069126254668,50.75765374295425,0.5787565957269125,0.083044,0.0008653230610586994,641.5452584764244,1.5205962153743349
394,300L_GN_2.0_6.0_25_225_trail_2\GS_21.213_GN_200_L_300_Trail_2_flip.png,2,300,21.213203435596427,200,3.517016261307377,0.197069126254668,50.75765374295425,0.5787565957269125,0.083044,0.0008653230610586994,641.5452584764244,1.5205962153743349
395,300L_GN_2.0_6.0_25_225_trail_2\GS_21.213_GN_200_L_300_Trail_2_mirror_flip.png,2,300,21.213203435596427,200,3.517016261307377,0.197069126254668,50.75765374295425,0.5787565957269125,0.083044,0.0008653230610586994,641.5452584764244,1.5205962153743349
396,300L_GN_2.0_6.0_25_225_trail_2\GS_20.0_GN_225_L_300_Trail_2_orig.png,2,300,20.0,225,5.101209295785388,0.2713528680254441,47.51187377924798,1.0864299026652413,0.08031600000000001,0.0017753039176434003,621.5034944922484,1.9213958803970737
397,300L_GN_2.0_6.0_25_225_trail_2\GS_20.0_GN_225_L_300_Trail_2_mirror.png,2,300,20.0,225,5.101209295785388,0.2713528680254441,47.51187377924798,1.0864299026652413,0.08031600000000001,0.0017753039176434003,621.5034944922484,1.9213958803970737
398,300L_GN_2.0_6.0_25_225_trail_2\GS_20.0_GN_225_L_300_Trail_2_flip.png,2,300,20.0,225,5.101209295785388,0.2713528680254441,47.51187377924798,1.0864299026652413,0.08031600000000001,0.0017753039176434003,621.5034944922484,1.9213958803970737
399,300L_GN_2.0_6.0_25_225_trail_2\GS_20.0_GN_225_L_300_Trail_2_mirror_flip.png,2,300,20.0,225,5.101209295785388,0.2713528680254441,47.51187377924798,1.0864299026652413,0.08031600000000001,0.0017753039176434003,621.5034944922484,1.9213958803970737
