,image_path,Trail,Panel_Size,grain_size,grain_number,Mean_Stress_xx,Std_Stress_xx,Mean_Stress_yy,Std_Stress_yy,Mean_Strain,Std_Strain,Mean_Youngs_modulus,Std_Youngs_modulus
0,300L_GN_2.0_6.0_25_225_trail_1/GS_60.0_GN_25_L_300_Trail_1_orig.png,1,300,60.0,25,3.3156013033996374,0.24677479597435337,49.33800975965586,0.4926145367791093,0.073936,0.0009059271493889562,717.9735709372183,1.4276746579738813
1,300L_GN_2.0_6.0_25_225_trail_1/GS_60.0_GN_25_L_300_Trail_1_mirror.png,1,300,60.0,25,3.3156013033996374,0.24677479597435337,49.33800975965586,0.4926145367791093,0.073936,0.0009059271493889562,717.9735709372183,1.4276746579738813
2,300L_GN_2.0_6.0_25_225_trail_1/GS_60.0_GN_25_L_300_Trail_1_flip.png,1,300,60.0,25,3.3156013033996374,0.24677479597435337,49.33800975965586,0.4926145367791093,0.073936,0.0009059271493889562,717.9735709372183,1.4276746579738813
3,300L_GN_2.0_6.0_25_225_trail_1/GS_60.0_GN_25_L_300_Trail_1_mirror_flip.png,1,300,60.0,25,3.3156013033996374,0.24677479597435337,49.33800975965586,0.4926145367791093,0.073936,0.0009059271493889562,717.9735709372183,1.4276746579738813
4,300L_GN_2.0_6.0_25_225_trail_1/GS_58.835_GN_26_L_300_Trail_1_orig.png,1,300,58.834840541455215,26,3.920867888237943,0.39442797007215247,54.1326967768379,0.46080059312179533,0.08074600000000001,0.0006134036191611487,725.151876381184,1.166855833502488
5,300L_GN_2.0_6.0_25_225_trail_1/GS_58.835_GN_26_L_300_Trail_1_mirror.png,1,300,58.834840541455215,26,3.920867888237943,0.39442797007215247,54.1326967768379,0.46080059312179533,0.08074600000000001,0.0006134036191611487,725.151876381184,1.166855833502488
6,300L_GN_2.0_6.0_25_225_trail_1/GS_58.835_GN_26_L_300_Trail_1_flip.png,1,300,58.834840541455215,26,3.920867888237943,0.39442797007215247,54.1326967768379,0.46080059312179533,0.08074600000000001,0.0006134036191611487,725.151876381184,1.166855833502488
7,300L_GN_2.0_6.0_25_225_trail_1/GS_58.835_GN_26_L_300_Trail_1_mirror_flip.png,1,300,58.834840541455215,26,3.920867888237943,0.39442797007215247,54.1326967768379,0.46080059312179533,0.08074600000000001,0.0006134036191611487,725.151876381184,1.166855833502488
8,300L_GN_2.0_6.0_25_225_trail_1/GS_57.735_GN_27_L_300_Trail_1_orig.png,1,300,57.735026918962575,27,3.365601578737823,0.2724434791260662,55.79981684335354,0.9845578218478207,0.07963400000000001,0.0014417295169344316,742.2933911101525,0.7942484058513494
9,300L_GN_2.0_6.0_25_225_trail_1/GS_57.735_GN_27_L_300_Trail_1_mirror.png,1,300,57.735026918962575,27,3.365601578737823,0.2724434791260662,55.79981684335354,0.9845578218478207,0.07963400000000001,0.0014417295169344316,742.2933911101525,0.7942484058513494
10,300L_GN_2.0_6.0_25_225_trail_1/GS_57.735_GN_27_L_300_Trail_1_flip.png,1,300,57.735026918962575,27,3.365601578737823,0.2724434791260662,55.79981684335354,0.9845578218478207,0.07963400000000001,0.0014417295169344316,742.2933911101525,0.7942484058513494
11,300L_GN_2.0_6.0_25_225_trail_1/GS_57.735_GN_27_L_300_Trail_1_mirror_flip.png,1,300,57.735026918962575,27,3.365601578737823,0.2724434791260662,55.79981684335354,0.9845578218478207,0.07963400000000001,0.0014417295169344316,742.2933911101525,0.7942484058513494
12,300L_GN_2.0_6.0_25_225_trail_1/GS_56.695_GN_28_L_300_Trail_1_orig.png,1,300,56.69467095138408,28,4.221973136320975,0.1074821021535598,52.38179029832297,0.35007171233595996,0.07732800000000002,0.0008399857141642325,718.4695754933443,1.5962526227466578
13,300L_GN_2.0_6.0_25_225_trail_1/GS_56.695_GN_28_L_300_Trail_1_mirror.png,1,300,56.69467095138408,28,4.221973136320975,0.1074821021535598,52.38179029832297,0.35007171233595996,0.07732800000000002,0.0008399857141642325,718.4695754933443,1.5962526227466578
14,300L_GN_2.0_6.0_25_225_trail_1/GS_56.695_GN_28_L_300_Trail_1_flip.png,1,300,56.69467095138408,28,4.221973136320975,0.1074821021535598,52.38179029832297,0.35007171233595996,0.07732800000000002,0.0008399857141642325,718.4695754933443,1.5962526227466578
15,300L_GN_2.0_6.0_25_225_trail_1/GS_56.695_GN_28_L_300_Trail_1_mirror_flip.png,1,300,56.69467095138408,28,4.221973136320975,0.1074821021535598,52.38179029832297,0.35007171233595996,0.07732800000000002,0.0008399857141642325,718.4695754933443,1.5962526227466578
16,300L_GN_2.0_6.0_25_225_trail_1/GS_55.709_GN_29_L_300_Trail_1_orig.png,1,300,55.70860145311556,29,3.139821448675385,0.215157960259422,53.237672531583826,0.7984497618269062,0.07976800000000002,0.0012477243285277414,709.8944692429493,1.4333055706581292
17,300L_GN_2.0_6.0_25_225_trail_1/GS_55.709_GN_29_L_300_Trail_1_mirror.png,1,300,55.70860145311556,29,3.139821448675385,0.215157960259422,53.237672531583826,0.7984497618269062,0.07976800000000002,0.0012477243285277414,709.8944692429493,1.4333055706581292
18,300L_GN_2.0_6.0_25_225_trail_1/GS_55.709_GN_29_L_300_Trail_1_flip.png,1,300,55.70860145311556,29,3.139821448675385,0.215157960259422,53.237672531583826,0.7984497618269062,0.07976800000000002,0.0012477243285277414,709.8944692429493,1.4333055706581292
19,300L_GN_2.0_6.0_25_225_trail_1/GS_55.709_GN_29_L_300_Trail_1_mirror_flip.png,1,300,55.70860145311556,29,3.139821448675385,0.215157960259422,53.237672531583826,0.7984497618269062,0.07976800000000002,0.0012477243285277414,709.8944692429493,1.4333055706581292
20,300L_GN_2.0_6.0_25_225_trail_1/GS_54.772_GN_30_L_300_Trail_1_orig.png,1,300,54.772255750516614,30,4.176536250598911,0.2345216550212978,51.92056574095808,0.8993104737097061,0.077462,0.00138016520750235,730.7572492199581,1.5370286507567528
21,300L_GN_2.0_6.0_25_225_trail_1/GS_54.772_GN_30_L_300_Trail_1_mirror.png,1,300,54.772255750516614,30,4.176536250598911,0.2345216550212978,51.92056574095808,0.8993104737097061,0.077462,0.00138016520750235,730.7572492199581,1.5370286507567528
22,300L_GN_2.0_6.0_25_225_trail_1/GS_54.772_GN_30_L_300_Trail_1_flip.png,1,300,54.772255750516614,30,4.176536250598911,0.2345216550212978,51.92056574095808,0.8993104737097061,0.077462,0.00138016520750235,730.7572492199581,1.5370286507567528
23,300L_GN_2.0_6.0_25_225_trail_1/GS_54.772_GN_30_L_300_Trail_1_mirror_flip.png,1,300,54.772255750516614,30,4.176536250598911,0.2345216550212978,51.92056574095808,0.8993104737097061,0.077462,0.00138016520750235,730.7572492199581,1.5370286507567528
24,300L_GN_2.0_6.0_25_225_trail_1/GS_53.882_GN_31_L_300_Trail_1_orig.png,1,300,53.881590608032475,31,4.2228114266304555,0.4849577139369765,57.59254789657488,0.7125011668316878,0.086918,0.0009287712312512713,719.5927678383632,1.0793106323102948
25,300L_GN_2.0_6.0_25_225_trail_1/GS_53.882_GN_31_L_300_Trail_1_mirror.png,1,300,53.881590608032475,31,4.2228114266304555,0.4849577139369765,57.59254789657488,0.7125011668316878,0.086918,0.0009287712312512713,719.5927678383632,1.0793106323102948
26,300L_GN_2.0_6.0_25_225_trail_1/GS_53.882_GN_31_L_300_Trail_1_flip.png,1,300,53.881590608032475,31,4.2228114266304555,0.4849577139369765,57.59254789657488,0.7125011668316878,0.086918,0.0009287712312512713,719.5927678383632,1.0793106323102948
27,300L_GN_2.0_6.0_25_225_trail_1/GS_53.882_GN_31_L_300_Trail_1_mirror_flip.png,1,300,53.881590608032475,31,4.2228114266304555,0.4849577139369765,57.59254789657488,0.7125011668316878,0.086918,0.0009287712312512713,719.5927678383632,1.0793106323102948
28,300L_GN_2.0_6.0_25_225_trail_1/GS_53.033_GN_32_L_300_Trail_1_orig.png,1,300,53.03300858899106,32,4.6240863287969125,0.48970965322535004,55.878972068593704,0.48717835121871933,0.08572199999999999,0.0008542458662469478,706.3567467435793,1.8688513359522245
29,300L_GN_2.0_6.0_25_225_trail_1/GS_53.033_GN_32_L_300_Trail_1_mirror.png,1,300,53.03300858899106,32,4.6240863287969125,0.48970965322535004,55.878972068593704,0.48717835121871933,0.08572199999999999,0.0008542458662469478,706.3567467435793,1.8688513359522245
30,300L_GN_2.0_6.0_25_225_trail_1/GS_53.033_GN_32_L_300_Trail_1_flip.png,1,300,53.03300858899106,32,4.6240863287969125,0.48970965322535004,55.878972068593704,0.48717835121871933,0.08572199999999999,0.0008542458662469478,706.3567467435793,1.8688513359522245
31,300L_GN_2.0_6.0_25_225_trail_1/GS_53.033_GN_32_L_300_Trail_1_mirror_flip.png,1,300,53.03300858899106,32,4.6240863287969125,0.48970965322535004,55.878972068593704,0.48717835121871933,0.08572199999999999,0.0008542458662469478,706.3567467435793,1.8688513359522245
32,300L_GN_2.0_6.0_25_225_trail_1/GS_52.223_GN_33_L_300_Trail_1_orig.png,1,300,52.223296786709355,33,3.8107063940655572,0.2665354734307616,51.320183624491975,2.857997648378999,0.075126,0.005655010521652457,725.8565555738932,1.0986451418961365
33,300L_GN_2.0_6.0_25_225_trail_1/GS_52.223_GN_33_L_300_Trail_1_mirror.png,1,300,52.223296786709355,33,3.8107063940655572,0.2665354734307616,51.320183624491975,2.857997648378999,0.075126,0.005655010521652457,725.8565555738932,1.0986451418961365
34,300L_GN_2.0_6.0_25_225_trail_1/GS_52.223_GN_33_L_300_Trail_1_flip.png,1,300,52.223296786709355,33,3.8107063940655572,0.2665354734307616,51.320183624491975,2.857997648378999,0.075126,0.005655010521652457,725.8565555738932,1.0986451418961365
35,300L_GN_2.0_6.0_25_225_trail_1/GS_52.223_GN_33_L_300_Trail_1_mirror_flip.png,1,300,52.223296786709355,33,3.8107063940655572,0.2665354734307616,51.320183624491975,2.857997648378999,0.075126,0.005655010521652457,725.8565555738932,1.0986451418961365
36,300L_GN_2.0_6.0_25_225_trail_1/GS_51.45_GN_34_L_300_Trail_1_orig.png,1,300,51.44957554275265,34,3.6330802527993353,0.5210761776751869,56.40386266499735,0.2958790371502299,0.08522500000000002,0.0004261748467472009,712.4715674560589,0.3530172875591716
37,300L_GN_2.0_6.0_25_225_trail_1/GS_51.45_GN_34_L_300_Trail_1_mirror.png,1,300,51.44957554275265,34,3.6330802527993353,0.5210761776751869,56.40386266499735,0.2958790371502299,0.08522500000000002,0.0004261748467472009,712.4715674560589,0.3530172875591716
38,300L_GN_2.0_6.0_25_225_trail_1/GS_51.45_GN_34_L_300_Trail_1_flip.png,1,300,51.44957554275265,34,3.6330802527993353,0.5210761776751869,56.40386266499735,0.2958790371502299,0.08522500000000002,0.0004261748467472009,712.4715674560589,0.3530172875591716
39,300L_GN_2.0_6.0_25_225_trail_1/GS_51.45_GN_34_L_300_Trail_1_mirror_flip.png,1,300,51.44957554275265,34,3.6330802527993353,0.5210761776751869,56.40386266499735,0.2958790371502299,0.08522500000000002,0.0004261748467472009,712.4715674560589,0.3530172875591716
40,300L_GN_2.0_6.0_25_225_trail_1/GS_50.709_GN_35_L_300_Trail_1_orig.png,1,300,50.709255283710995,35,3.959684591020583,0.2594619508610938,52.4678748709886,0.7933536997379744,0.076732,0.0008457753838933823,731.8362801399805,1.5597319803313905
41,300L_GN_2.0_6.0_25_225_trail_1/GS_50.709_GN_35_L_300_Trail_1_mirror.png,1,300,50.709255283710995,35,3.959684591020583,0.2594619508610938,52.4678748709886,0.7933536997379744,0.076732,0.0008457753838933823,731.8362801399805,1.5597319803313905
42,300L_GN_2.0_6.0_25_225_trail_1/GS_50.709_GN_35_L_300_Trail_1_flip.png,1,300,50.709255283710995,35,3.959684591020583,0.2594619508610938,52.4678748709886,0.7933536997379744,0.076732,0.0008457753838933823,731.8362801399805,1.5597319803313905
43,300L_GN_2.0_6.0_25_225_trail_1/GS_50.709_GN_35_L_300_Trail_1_mirror_flip.png,1,300,50.709255283710995,35,3.959684591020583,0.2594619508610938,52.4678748709886,0.7933536997379744,0.076732,0.0008457753838933823,731.8362801399805,1.5597319803313905
44,300L_GN_2.0_6.0_25_225_trail_1/GS_50.0_GN_36_L_300_Trail_1_orig.png,1,300,50.0,36,3.7459069761940236,0.5006000292088433,50.73202842641486,0.8900232670762843,0.07691,0.0015095959724376554,706.8563133557559,2.2849764286170573
45,300L_GN_2.0_6.0_25_225_trail_1/GS_50.0_GN_36_L_300_Trail_1_mirror.png,1,300,50.0,36,3.7459069761940236,0.5006000292088433,50.73202842641486,0.8900232670762843,0.07691,0.0015095959724376554,706.8563133557559,2.2849764286170573
46,300L_GN_2.0_6.0_25_225_trail_1/GS_50.0_GN_36_L_300_Trail_1_flip.png,1,300,50.0,36,3.7459069761940236,0.5006000292088433,50.73202842641486,0.8900232670762843,0.07691,0.0015095959724376554,706.8563133557559,2.2849764286170573
47,300L_GN_2.0_6.0_25_225_trail_1/GS_50.0_GN_36_L_300_Trail_1_mirror_flip.png,1,300,50.0,36,3.7459069761940236,0.5006000292088433,50.73202842641486,0.8900232670762843,0.07691,0.0015095959724376554,706.8563133557559,2.2849764286170573
48,300L_GN_2.0_6.0_25_225_trail_1/GS_49.32_GN_37_L_300_Trail_1_orig.png,1,300,49.31969619160719,37,3.7851866334758824,0.09428692921551668,50.55137245935792,0.917147485251335,0.07516799999999998,0.0014537730221736826,717.2218303667503,1.7875820549015677
49,300L_GN_2.0_6.0_25_225_trail_1/GS_49.32_GN_37_L_300_Trail_1_mirror.png,1,300,49.31969619160719,37,3.7851866334758824,0.09428692921551668,50.55137245935792,0.917147485251335,0.07516799999999998,0.0014537730221736826,717.2218303667503,1.7875820549015677
50,300L_GN_2.0_6.0_25_225_trail_1/GS_49.32_GN_37_L_300_Trail_1_flip.png,1,300,49.31969619160719,37,3.7851866334758824,0.09428692921551668,50.55137245935792,0.917147485251335,0.07516799999999998,0.0014537730221736826,717.2218303667503,1.7875820549015677
51,300L_GN_2.0_6.0_25_225_trail_1/GS_49.32_GN_37_L_300_Trail_1_mirror_flip.png,1,300,49.31969619160719,37,3.7851866334758824,0.09428692921551668,50.55137245935792,0.917147485251335,0.07516799999999998,0.0014537730221736826,717.2218303667503,1.7875820549015677
52,300L_GN_2.0_6.0_25_225_trail_1/GS_48.666_GN_38_L_300_Trail_1_orig.png,1,300,48.666426339228764,38,4.106128584593701,0.3336099715868586,52.990501896149816,0.9792100894513998,0.08228800000000001,0.0018438806902834049,695.9095725090417,1.3123228258765973
53,300L_GN_2.0_6.0_25_225_trail_1/GS_48.666_GN_38_L_300_Trail_1_mirror.png,1,300,48.666426339228764,38,4.106128584593701,0.3336099715868586,52.990501896149816,0.9792100894513998,0.08228800000000001,0.0018438806902834049,695.9095725090417,1.3123228258765973
54,300L_GN_2.0_6.0_25_225_trail_1/GS_48.666_GN_38_L_300_Trail_1_flip.png,1,300,48.666426339228764,38,4.106128584593701,0.3336099715868586,52.990501896149816,0.9792100894513998,0.08228800000000001,0.0018438806902834049,695.9095725090417,1.3123228258765973
55,300L_GN_2.0_6.0_25_225_trail_1/GS_48.666_GN_38_L_300_Trail_1_mirror_flip.png,1,300,48.666426339228764,38,4.106128584593701,0.3336099715868586,52.990501896149816,0.9792100894513998,0.08228800000000001,0.0018438806902834049,695.9095725090417,1.3123228258765973
56,300L_GN_2.0_6.0_25_225_trail_1/GS_48.038_GN_39_L_300_Trail_1_orig.png,1,300,48.03844614152614,39,4.438535631040673,0.3546870482673248,52.408838756694806,1.2749281620598176,0.08071600000000001,0.0020688412215537472,700.9004757437758,0.4873406411744197
57,300L_GN_2.0_6.0_25_225_trail_1/GS_48.038_GN_39_L_300_Trail_1_mirror.png,1,300,48.03844614152614,39,4.438535631040673,0.3546870482673248,52.408838756694806,1.2749281620598176,0.08071600000000001,0.0020688412215537472,700.9004757437758,0.4873406411744197
58,300L_GN_2.0_6.0_25_225_trail_1/GS_48.038_GN_39_L_300_Trail_1_flip.png,1,300,48.03844614152614,39,4.438535631040673,0.3546870482673248,52.408838756694806,1.2749281620598176,0.08071600000000001,0.0020688412215537472,700.9004757437758,0.4873406411744197
59,300L_GN_2.0_6.0_25_225_trail_1/GS_48.038_GN_39_L_300_Trail_1_mirror_flip.png,1,300,48.03844614152614,39,4.438535631040673,0.3546870482673248,52.408838756694806,1.2749281620598176,0.08071600000000001,0.0020688412215537472,700.9004757437758,0.4873406411744197
60,300L_GN_2.0_6.0_25_225_trail_1/GS_47.434_GN_40_L_300_Trail_1_orig.png,1,300,47.43416490252569,40,3.8028261880008785,0.6518693297396697,57.72602332705816,0.4233669865990258,0.088704,0.0007838775414565726,706.1487370994331,2.0613372108348136
61,300L_GN_2.0_6.0_25_225_trail_1/GS_47.434_GN_40_L_300_Trail_1_mirror.png,1,300,47.43416490252569,40,3.8028261880008785,0.6518693297396697,57.72602332705816,0.4233669865990258,0.088704,0.0007838775414565726,706.1487370994331,2.0613372108348136
62,300L_GN_2.0_6.0_25_225_trail_1/GS_47.434_GN_40_L_300_Trail_1_flip.png,1,300,47.43416490252569,40,3.8028261880008785,0.6518693297396697,57.72602332705816,0.4233669865990258,0.088704,0.0007838775414565726,706.1487370994331,2.0613372108348136
63,300L_GN_2.0_6.0_25_225_trail_1/GS_47.434_GN_40_L_300_Trail_1_mirror_flip.png,1,300,47.43416490252569,40,3.8028261880008785,0.6518693297396697,57.72602332705816,0.4233669865990258,0.088704,0.0007838775414565726,706.1487370994331,2.0613372108348136
64,300L_GN_2.0_6.0_25_225_trail_1/GS_46.852_GN_41_L_300_Trail_1_orig.png,1,300,46.85212856658182,41,5.044172781269613,0.18316149038804366,53.308192384358925,1.2893698323788425,0.08320000000000001,0.002382653982432191,693.8425525814437,1.1545860859976602
65,300L_GN_2.0_6.0_25_225_trail_1/GS_46.852_GN_41_L_300_Trail_1_mirror.png,1,300,46.85212856658182,41,5.044172781269613,0.18316149038804366,53.308192384358925,1.2893698323788425,0.08320000000000001,0.002382653982432191,693.8425525814437,1.1545860859976602
66,300L_GN_2.0_6.0_25_225_trail_1/GS_46.852_GN_41_L_300_Trail_1_flip.png,1,300,46.85212856658182,41,5.044172781269613,0.18316149038804366,53.308192384358925,1.2893698323788425,0.08320000000000001,0.002382653982432191,693.8425525814437,1.1545860859976602
67,300L_GN_2.0_6.0_25_225_trail_1/GS_46.852_GN_41_L_300_Trail_1_mirror_flip.png,1,300,46.85212856658182,41,5.044172781269613,0.18316149038804366,53.308192384358925,1.2893698323788425,0.08320000000000001,0.002382653982432191,693.8425525814437,1.1545860859976602
68,300L_GN_2.0_6.0_25_225_trail_1/GS_45.75_GN_43_L_300_Trail_1_orig.png,1,300,45.7495710997814,43,4.757363727578534,0.6222899140211156,49.02414953707968,0.42054861110705416,0.07459000000000002,0.0007937253933193747,690.0876846054401,1.2218260246529455
69,300L_GN_2.0_6.0_25_225_trail_1/GS_45.75_GN_43_L_300_Trail_1_mirror.png,1,300,45.7495710997814,43,4.757363727578534,0.6222899140211156,49.02414953707968,0.42054861110705416,0.07459000000000002,0.0007937253933193747,690.0876846054401,1.2218260246529455
70,300L_GN_2.0_6.0_25_225_trail_1/GS_45.75_GN_43_L_300_Trail_1_flip.png,1,300,45.7495710997814,43,4.757363727578534,0.6222899140211156,49.02414953707968,0.42054861110705416,0.07459000000000002,0.0007937253933193747,690.0876846054401,1.2218260246529455
71,300L_GN_2.0_6.0_25_225_trail_1/GS_45.75_GN_43_L_300_Trail_1_mirror_flip.png,1,300,45.7495710997814,43,4.757363727578534,0.6222899140211156,49.02414953707968,0.42054861110705416,0.07459000000000002,0.0007937253933193747,690.0876846054401,1.2218260246529455
72,300L_GN_2.0_6.0_25_225_trail_1/GS_45.227_GN_44_L_300_Trail_1_orig.png,1,300,45.22670168666454,44,3.8811427304632504,0.33675405595189817,47.98051079191562,0.7970148542468173,0.07232000000000001,0.0011615162504244173,709.2149431360601,0.8405494156950697
73,300L_GN_2.0_6.0_25_225_trail_1/GS_45.227_GN_44_L_300_Trail_1_mirror.png,1,300,45.22670168666454,44,3.8811427304632504,0.33675405595189817,47.98051079191562,0.7970148542468173,0.07232000000000001,0.0011615162504244173,709.2149431360601,0.8405494156950697
74,300L_GN_2.0_6.0_25_225_trail_1/GS_45.227_GN_44_L_300_Trail_1_flip.png,1,300,45.22670168666454,44,3.8811427304632504,0.33675405595189817,47.98051079191562,0.7970148542468173,0.07232000000000001,0.0011615162504244173,709.2149431360601,0.8405494156950697
75,300L_GN_2.0_6.0_25_225_trail_1/GS_45.227_GN_44_L_300_Trail_1_mirror_flip.png,1,300,45.22670168666454,44,3.8811427304632504,0.33675405595189817,47.98051079191562,0.7970148542468173,0.07232000000000001,0.0011615162504244173,709.2149431360601,0.8405494156950697
76,300L_GN_2.0_6.0_25_225_trail_1/GS_43.759_GN_47_L_300_Trail_1_orig.png,1,300,43.75949744936837,47,4.014436601951611,0.7191211605759023,50.17089437095227,2.558394117009721,0.07781800000000001,0.004402914489290021,703.9833338806081,0.761676026464867
77,300L_GN_2.0_6.0_25_225_trail_1/GS_43.759_GN_47_L_300_Trail_1_mirror.png,1,300,43.75949744936837,47,4.014436601951611,0.7191211605759023,50.17089437095227,2.558394117009721,0.07781800000000001,0.004402914489290021,703.9833338806081,0.761676026464867
78,300L_GN_2.0_6.0_25_225_trail_1/GS_43.759_GN_47_L_300_Trail_1_flip.png,1,300,43.75949744936837,47,4.014436601951611,0.7191211605759023,50.17089437095227,2.558394117009721,0.07781800000000001,0.004402914489290021,703.9833338806081,0.761676026464867
79,300L_GN_2.0_6.0_25_225_trail_1/GS_43.759_GN_47_L_300_Trail_1_mirror_flip.png,1,300,43.75949744936837,47,4.014436601951611,0.7191211605759023,50.17089437095227,2.558394117009721,0.07781800000000001,0.004402914489290021,703.9833338806081,0.761676026464867
80,300L_GN_2.0_6.0_25_225_trail_1/GS_43.301_GN_48_L_300_Trail_1_orig.png,1,300,43.30127018922194,48,4.637968259161429,0.4403780912378097,49.826073790733055,1.3420415496444842,0.077566,0.002247314842206138,692.0641912495697,1.195270178176237
81,300L_GN_2.0_6.0_25_225_trail_1/GS_43.301_GN_48_L_300_Trail_1_mirror.png,1,300,43.30127018922194,48,4.637968259161429,0.4403780912378097,49.826073790733055,1.3420415496444842,0.077566,0.002247314842206138,692.0641912495697,1.195270178176237
82,300L_GN_2.0_6.0_25_225_trail_1/GS_43.301_GN_48_L_300_Trail_1_flip.png,1,300,43.30127018922194,48,4.637968259161429,0.4403780912378097,49.826073790733055,1.3420415496444842,0.077566,0.002247314842206138,692.0641912495697,1.195270178176237
83,300L_GN_2.0_6.0_25_225_trail_1/GS_43.301_GN_48_L_300_Trail_1_mirror_flip.png,1,300,43.30127018922194,48,4.637968259161429,0.4403780912378097,49.826073790733055,1.3420415496444842,0.077566,0.002247314842206138,692.0641912495697,1.195270178176237
84,300L_GN_2.0_6.0_25_225_trail_1/GS_42.426_GN_50_L_300_Trail_1_orig.png,1,300,42.42640687119285,50,3.9738898866604315,0.2669201527434485,50.98838845495607,0.5295366946639846,0.07678,0.0014375952142379961,699.7869230555289,1.0460619149982353
85,300L_GN_2.0_6.0_25_225_trail_1/GS_42.426_GN_50_L_300_Trail_1_mirror.png,1,300,42.42640687119285,50,3.9738898866604315,0.2669201527434485,50.98838845495607,0.5295366946639846,0.07678,0.0014375952142379961,699.7869230555289,1.0460619149982353
86,300L_GN_2.0_6.0_25_225_trail_1/GS_42.426_GN_50_L_300_Trail_1_flip.png,1,300,42.42640687119285,50,3.9738898866604315,0.2669201527434485,50.98838845495607,0.5295366946639846,0.07678,0.0014375952142379961,699.7869230555289,1.0460619149982353
87,300L_GN_2.0_6.0_25_225_trail_1/GS_42.426_GN_50_L_300_Trail_1_mirror_flip.png,1,300,42.42640687119285,50,3.9738898866604315,0.2669201527434485,50.98838845495607,0.5295366946639846,0.07678,0.0014375952142379961,699.7869230555289,1.0460619149982353
88,300L_GN_2.0_6.0_25_225_trail_1/GS_41.603_GN_52_L_300_Trail_1_orig.png,1,300,41.60251471689219,52,3.447009811654708,0.5342200775647479,52.87959835449349,0.3244078935973752,0.083916,0.0014549584186498235,675.1875250338212,1.2097352775810004
89,300L_GN_2.0_6.0_25_225_trail_1/GS_41.603_GN_52_L_300_Trail_1_mirror.png,1,300,41.60251471689219,52,3.447009811654708,0.5342200775647479,52.87959835449349,0.3244078935973752,0.083916,0.0014549584186498235,675.1875250338212,1.2097352775810004
90,300L_GN_2.0_6.0_25_225_trail_1/GS_41.603_GN_52_L_300_Trail_1_flip.png,1,300,41.60251471689219,52,3.447009811654708,0.5342200775647479,52.87959835449349,0.3244078935973752,0.083916,0.0014549584186498235,675.1875250338212,1.2097352775810004
91,300L_GN_2.0_6.0_25_225_trail_1/GS_41.603_GN_52_L_300_Trail_1_mirror_flip.png,1,300,41.60251471689219,52,3.447009811654708,0.5342200775647479,52.87959835449349,0.3244078935973752,0.083916,0.0014549584186498235,675.1875250338212,1.2097352775810004
92,300L_GN_2.0_6.0_25_225_trail_1/GS_41.208_GN_53_L_300_Trail_1_orig.png,1,300,41.20816918460671,53,4.533424016263654,0.20292859227971413,51.4090468253122,1.5372581398257845,0.078874,0.0025941904324856334,691.5559434804893,0.7393577778659898
93,300L_GN_2.0_6.0_25_225_trail_1/GS_41.208_GN_53_L_300_Trail_1_mirror.png,1,300,41.20816918460671,53,4.533424016263654,0.20292859227971413,51.4090468253122,1.5372581398257845,0.078874,0.0025941904324856334,691.5559434804893,0.7393577778659898
94,300L_GN_2.0_6.0_25_225_trail_1/GS_41.208_GN_53_L_300_Trail_1_flip.png,1,300,41.20816918460671,53,4.533424016263654,0.20292859227971413,51.4090468253122,1.5372581398257845,0.078874,0.0025941904324856334,691.5559434804893,0.7393577778659898
95,300L_GN_2.0_6.0_25_225_trail_1/GS_41.208_GN_53_L_300_Trail_1_mirror_flip.png,1,300,41.20816918460671,53,4.533424016263654,0.20292859227971413,51.4090468253122,1.5372581398257845,0.078874,0.0025941904324856334,691.5559434804893,0.7393577778659898
96,300L_GN_2.0_6.0_25_225_trail_1/GS_40.089_GN_56_L_300_Trail_1_orig.png,1,300,40.08918628686366,56,3.171345485103276,0.22467160468305183,51.89825237424496,0.844583807525383,0.078592,0.0018382970380218773,687.4621469175243,0.8199821425670277
97,300L_GN_2.0_6.0_25_225_trail_1/GS_40.089_GN_56_L_300_Trail_1_mirror.png,1,300,40.08918628686366,56,3.171345485103276,0.22467160468305183,51.89825237424496,0.844583807525383,0.078592,0.0018382970380218773,687.4621469175243,0.8199821425670277
98,300L_GN_2.0_6.0_25_225_trail_1/GS_40.089_GN_56_L_300_Trail_1_flip.png,1,300,40.08918628686366,56,3.171345485103276,0.22467160468305183,51.89825237424496,0.844583807525383,0.078592,0.0018382970380218773,687.4621469175243,0.8199821425670277
99,300L_GN_2.0_6.0_25_225_trail_1/GS_40.089_GN_56_L_300_Trail_1_mirror_flip.png,1,300,40.08918628686366,56,3.171345485103276,0.22467160468305183,51.89825237424496,0.844583807525383,0.078592,0.0018382970380218773,687.4621469175243,0.8199821425670277
100,300L_GN_2.0_6.0_25_225_trail_1/GS_39.392_GN_58_L_300_Trail_1_orig.png,1,300,39.391929857916764,58,4.221606221065153,0.6529591223780581,49.59702416798924,0.6917931480691611,0.080278,0.0011147448138475468,668.1051820129057,3.0023747442617243
101,300L_GN_2.0_6.0_25_225_trail_1/GS_39.392_GN_58_L_300_Trail_1_mirror.png,1,300,39.391929857916764,58,4.221606221065153,0.6529591223780581,49.59702416798924,0.6917931480691611,0.080278,0.0011147448138475468,668.1051820129057,3.0023747442617243
102,300L_GN_2.0_6.0_25_225_trail_1/GS_39.392_GN_58_L_300_Trail_1_flip.png,1,300,39.391929857916764,58,4.221606221065153,0.6529591223780581,49.59702416798924,0.6917931480691611,0.080278,0.0011147448138475468,668.1051820129057,3.0023747442617243
103,300L_GN_2.0_6.0_25_225_trail_1/GS_39.392_GN_58_L_300_Trail_1_mirror_flip.png,1,300,39.391929857916764,58,4.221606221065153,0.6529591223780581,49.59702416798924,0.6917931480691611,0.080278,0.0011147448138475468,668.1051820129057,3.0023747442617243
104,300L_GN_2.0_6.0_25_225_trail_1/GS_38.73_GN_60_L_300_Trail_1_orig.png,1,300,38.72983346207417,60,3.7118238392208682,0.21465104646850816,48.65694680731955,1.2143091917665993,0.076046,0.0020288380911250704,673.684078206902,1.8122747893776738
105,300L_GN_2.0_6.0_25_225_trail_1/GS_38.73_GN_60_L_300_Trail_1_mirror.png,1,300,38.72983346207417,60,3.7118238392208682,0.21465104646850816,48.65694680731955,1.2143091917665993,0.076046,0.0020288380911250704,673.684078206902,1.8122747893776738
106,300L_GN_2.0_6.0_25_225_trail_1/GS_38.73_GN_60_L_300_Trail_1_flip.png,1,300,38.72983346207417,60,3.7118238392208682,0.21465104646850816,48.65694680731955,1.2143091917665993,0.076046,0.0020288380911250704,673.684078206902,1.8122747893776738
107,300L_GN_2.0_6.0_25_225_trail_1/GS_38.73_GN_60_L_300_Trail_1_mirror_flip.png,1,300,38.72983346207417,60,3.7118238392208682,0.21465104646850816,48.65694680731955,1.2143091917665993,0.076046,0.0020288380911250704,673.684078206902,1.8122747893776738
108,300L_GN_2.0_6.0_25_225_trail_1/GS_38.1_GN_62_L_300_Trail_1_orig.png,1,300,38.10003810005715,62,3.9738690704759483,0.22123882595485417,49.46247482237214,0.9658809764394345,0.075184,0.0015314254797410168,699.4854913646662,1.1354187595747371
109,300L_GN_2.0_6.0_25_225_trail_1/GS_38.1_GN_62_L_300_Trail_1_mirror.png,1,300,38.10003810005715,62,3.9738690704759483,0.22123882595485417,49.46247482237214,0.9658809764394345,0.075184,0.0015314254797410168,699.4854913646662,1.1354187595747371
110,300L_GN_2.0_6.0_25_225_trail_1/GS_38.1_GN_62_L_300_Trail_1_flip.png,1,300,38.10003810005715,62,3.9738690704759483,0.22123882595485417,49.46247482237214,0.9658809764394345,0.075184,0.0015314254797410168,699.4854913646662,1.1354187595747371
111,300L_GN_2.0_6.0_25_225_trail_1/GS_38.1_GN_62_L_300_Trail_1_mirror_flip.png,1,300,38.10003810005715,62,3.9738690704759483,0.22123882595485417,49.46247482237214,0.9658809764394345,0.075184,0.0015314254797410168,699.4854913646662,1.1354187595747371
112,300L_GN_2.0_6.0_25_225_trail_1/GS_37.5_GN_64_L_300_Trail_1_orig.png,1,300,37.5,64,3.031624073552437,0.1112370918399552,50.992828188559514,0.43616987066481616,0.07783999999999999,0.000820755749294513,685.2916042875138,0.6321129348582373
113,300L_GN_2.0_6.0_25_225_trail_1/GS_37.5_GN_64_L_300_Trail_1_mirror.png,1,300,37.5,64,3.031624073552437,0.1112370918399552,50.992828188559514,0.43616987066481616,0.07783999999999999,0.000820755749294513,685.2916042875138,0.6321129348582373
114,300L_GN_2.0_6.0_25_225_trail_1/GS_37.5_GN_64_L_300_Trail_1_flip.png,1,300,37.5,64,3.031624073552437,0.1112370918399552,50.992828188559514,0.43616987066481616,0.07783999999999999,0.000820755749294513,685.2916042875138,0.6321129348582373
115,300L_GN_2.0_6.0_25_225_trail_1/GS_37.5_GN_64_L_300_Trail_1_mirror_flip.png,1,300,37.5,64,3.031624073552437,0.1112370918399552,50.992828188559514,0.43616987066481616,0.07783999999999999,0.000820755749294513,685.2916042875138,0.6321129348582373
116,300L_GN_2.0_6.0_25_225_trail_1/GS_36.927_GN_66_L_300_Trail_1_orig.png,1,300,36.927447293799815,66,4.045433053722928,0.43934042873459733,57.05493646979086,0.7477481746614865,0.090392,0.0010872239879620017,668.1571912068727,0.5207617450749308
117,300L_GN_2.0_6.0_25_225_trail_1/GS_36.927_GN_66_L_300_Trail_1_mirror.png,1,300,36.927447293799815,66,4.045433053722928,0.43934042873459733,57.05493646979086,0.7477481746614865,0.090392,0.0010872239879620017,668.1571912068727,0.5207617450749308
118,300L_GN_2.0_6.0_25_225_trail_1/GS_36.927_GN_66_L_300_Trail_1_flip.png,1,300,36.927447293799815,66,4.045433053722928,0.43934042873459733,57.05493646979086,0.7477481746614865,0.090392,0.0010872239879620017,668.1571912068727,0.5207617450749308
119,300L_GN_2.0_6.0_25_225_trail_1/GS_36.927_GN_66_L_300_Trail_1_mirror_flip.png,1,300,36.927447293799815,66,4.045433053722928,0.43934042873459733,57.05493646979086,0.7477481746614865,0.090392,0.0010872239879620017,668.1571912068727,0.5207617450749308
120,300L_GN_2.0_6.0_25_225_trail_1/GS_36.116_GN_69_L_300_Trail_1_orig.png,1,300,36.11575592573076,69,4.219039435068846,0.49939411529936606,50.86029893572246,1.3435949420752964,0.07979,0.002322584767021434,681.0385173143128,1.1615409429927557
121,300L_GN_2.0_6.0_25_225_trail_1/GS_36.116_GN_69_L_300_Trail_1_mirror.png,1,300,36.11575592573076,69,4.219039435068846,0.49939411529936606,50.86029893572246,1.3435949420752964,0.07979,0.002322584767021434,681.0385173143128,1.1615409429927557
122,300L_GN_2.0_6.0_25_225_trail_1/GS_36.116_GN_69_L_300_Trail_1_flip.png,1,300,36.11575592573076,69,4.219039435068846,0.49939411529936606,50.86029893572246,1.3435949420752964,0.07979,0.002322584767021434,681.0385173143128,1.1615409429927557
123,300L_GN_2.0_6.0_25_225_trail_1/GS_36.116_GN_69_L_300_Trail_1_mirror_flip.png,1,300,36.11575592573076,69,4.219039435068846,0.49939411529936606,50.86029893572246,1.3435949420752964,0.07979,0.002322584767021434,681.0385173143128,1.1615409429927557
124,300L_GN_2.0_6.0_25_225_trail_1/GS_34.874_GN_74_L_300_Trail_1_orig.png,1,300,34.87429162314579,74,3.8314960091089008,0.6103427870314351,51.892170751857655,0.17590289580743002,0.08235200000000001,0.00034982281229216394,664.5068502194001,1.4706042979545697
125,300L_GN_2.0_6.0_25_225_trail_1/GS_34.874_GN_74_L_300_Trail_1_mirror.png,1,300,34.87429162314579,74,3.8314960091089008,0.6103427870314351,51.892170751857655,0.17590289580743002,0.08235200000000001,0.00034982281229216394,664.5068502194001,1.4706042979545697
126,300L_GN_2.0_6.0_25_225_trail_1/GS_34.874_GN_74_L_300_Trail_1_flip.png,1,300,34.87429162314579,74,3.8314960091089008,0.6103427870314351,51.892170751857655,0.17590289580743002,0.08235200000000001,0.00034982281229216394,664.5068502194001,1.4706042979545697
127,300L_GN_2.0_6.0_25_225_trail_1/GS_34.874_GN_74_L_300_Trail_1_mirror_flip.png,1,300,34.87429162314579,74,3.8314960091089008,0.6103427870314351,51.892170751857655,0.17590289580743002,0.08235200000000001,0.00034982281229216394,664.5068502194001,1.4706042979545697
128,300L_GN_2.0_6.0_25_225_trail_1/GS_33.968_GN_78_L_300_Trail_1_orig.png,1,300,33.96831102433787,78,4.413024384934081,0.33857855916465956,51.364384383119855,0.3456006946888625,0.08009000000000001,0.0007779717218511196,685.7833303122309,1.0217135868955485
129,300L_GN_2.0_6.0_25_225_trail_1/GS_33.968_GN_78_L_300_Trail_1_mirror.png,1,300,33.96831102433787,78,4.413024384934081,0.33857855916465956,51.364384383119855,0.3456006946888625,0.08009000000000001,0.0007779717218511196,685.7833303122309,1.0217135868955485
130,300L_GN_2.0_6.0_25_225_trail_1/GS_33.968_GN_78_L_300_Trail_1_flip.png,1,300,33.96831102433787,78,4.413024384934081,0.33857855916465956,51.364384383119855,0.3456006946888625,0.08009000000000001,0.0007779717218511196,685.7833303122309,1.0217135868955485
131,300L_GN_2.0_6.0_25_225_trail_1/GS_33.968_GN_78_L_300_Trail_1_mirror_flip.png,1,300,33.96831102433787,78,4.413024384934081,0.33857855916465956,51.364384383119855,0.3456006946888625,0.08009000000000001,0.0007779717218511196,685.7833303122309,1.0217135868955485
132,300L_GN_2.0_6.0_25_225_trail_1/GS_33.129_GN_82_L_300_Trail_1_orig.png,1,300,33.12945782245396,82,4.061046198002,0.44426285588785613,52.01836236500999,1.1460653916482253,0.08141200000000001,0.002159642563018243,679.7248975135756,1.4846570320035315
133,300L_GN_2.0_6.0_25_225_trail_1/GS_33.129_GN_82_L_300_Trail_1_mirror.png,1,300,33.12945782245396,82,4.061046198002,0.44426285588785613,52.01836236500999,1.1460653916482253,0.08141200000000001,0.002159642563018243,679.7248975135756,1.4846570320035315
134,300L_GN_2.0_6.0_25_225_trail_1/GS_33.129_GN_82_L_300_Trail_1_flip.png,1,300,33.12945782245396,82,4.061046198002,0.44426285588785613,52.01836236500999,1.1460653916482253,0.08141200000000001,0.002159642563018243,679.7248975135756,1.4846570320035315
135,300L_GN_2.0_6.0_25_225_trail_1/GS_33.129_GN_82_L_300_Trail_1_mirror_flip.png,1,300,33.12945782245396,82,4.061046198002,0.44426285588785613,52.01836236500999,1.1460653916482253,0.08141200000000001,0.002159642563018243,679.7248975135756,1.4846570320035315
136,300L_GN_2.0_6.0_25_225_trail_1/GS_32.163_GN_87_L_300_Trail_1_orig.png,1,300,32.163376045133845,87,4.689677777661607,0.4186768377357981,51.22121077380772,1.3215870219788957,0.08135200000000001,0.0022312902097217186,669.2957221691197,1.4219762193647016
137,300L_GN_2.0_6.0_25_225_trail_1/GS_32.163_GN_87_L_300_Trail_1_mirror.png,1,300,32.163376045133845,87,4.689677777661607,0.4186768377357981,51.22121077380772,1.3215870219788957,0.08135200000000001,0.0022312902097217186,669.2957221691197,1.4219762193647016
138,300L_GN_2.0_6.0_25_225_trail_1/GS_32.163_GN_87_L_300_Trail_1_flip.png,1,300,32.163376045133845,87,4.689677777661607,0.4186768377357981,51.22121077380772,1.3215870219788957,0.08135200000000001,0.0022312902097217186,669.2957221691197,1.4219762193647016
139,300L_GN_2.0_6.0_25_225_trail_1/GS_32.163_GN_87_L_300_Trail_1_mirror_flip.png,1,300,32.163376045133845,87,4.689677777661607,0.4186768377357981,51.22121077380772,1.3215870219788957,0.08135200000000001,0.0022312902097217186,669.2957221691197,1.4219762193647016
140,300L_GN_2.0_6.0_25_225_trail_1/GS_31.449_GN_91_L_300_Trail_1_orig.png,1,300,31.44854510165755,91,2.9222551885914894,0.44789542081658335,50.71005158270432,0.778723556983419,0.08019000000000001,0.0015169179279051312,664.3748484920654,1.4629828901650594
141,300L_GN_2.0_6.0_25_225_trail_1/GS_31.449_GN_91_L_300_Trail_1_mirror.png,1,300,31.44854510165755,91,2.9222551885914894,0.44789542081658335,50.71005158270432,0.778723556983419,0.08019000000000001,0.0015169179279051312,664.3748484920654,1.4629828901650594
142,300L_GN_2.0_6.0_25_225_trail_1/GS_31.449_GN_91_L_300_Trail_1_flip.png,1,300,31.44854510165755,91,2.9222551885914894,0.44789542081658335,50.71005158270432,0.778723556983419,0.08019000000000001,0.0015169179279051312,664.3748484920654,1.4629828901650594
143,300L_GN_2.0_6.0_25_225_trail_1/GS_31.449_GN_91_L_300_Trail_1_mirror_flip.png,1,300,31.44854510165755,91,2.9222551885914894,0.44789542081658335,50.71005158270432,0.778723556983419,0.08019000000000001,0.0015169179279051312,664.3748484920654,1.4629828901650594
144,300L_GN_2.0_6.0_25_225_trail_1/GS_30.779_GN_95_L_300_Trail_1_orig.png,1,300,30.779350562554626,95,4.296741611633245,0.2505039266305876,52.973247734275766,0.6129415239232905,0.08568800000000001,0.001223754877416224,652.0630721648586,1.653174225218056
145,300L_GN_2.0_6.0_25_225_trail_1/GS_30.779_GN_95_L_300_Trail_1_mirror.png,1,300,30.779350562554626,95,4.296741611633245,0.2505039266305876,52.973247734275766,0.6129415239232905,0.08568800000000001,0.001223754877416224,652.0630721648586,1.653174225218056
146,300L_GN_2.0_6.0_25_225_trail_1/GS_30.779_GN_95_L_300_Trail_1_flip.png,1,300,30.779350562554626,95,4.296741611633245,0.2505039266305876,52.973247734275766,0.6129415239232905,0.08568800000000001,0.001223754877416224,652.0630721648586,1.653174225218056
147,300L_GN_2.0_6.0_25_225_trail_1/GS_30.779_GN_95_L_300_Trail_1_mirror_flip.png,1,300,30.779350562554626,95,4.296741611633245,0.2505039266305876,52.973247734275766,0.6129415239232905,0.08568800000000001,0.001223754877416224,652.0630721648586,1.653174225218056
148,300L_GN_2.0_6.0_25_225_trail_1/GS_30.0_GN_100_L_300_Trail_1_orig.png,1,300,30.0,100,3.012050929094422,0.18933684104262524,51.10276873531717,0.2255485799095659,0.0815825,0.0004607263287462501,673.337512946404,0.6467369313275492
149,300L_GN_2.0_6.0_25_225_trail_1/GS_30.0_GN_100_L_300_Trail_1_mirror.png,1,300,30.0,100,3.012050929094422,0.18933684104262524,51.10276873531717,0.2255485799095659,0.0815825,0.0004607263287462501,673.337512946404,0.6467369313275492
150,300L_GN_2.0_6.0_25_225_trail_1/GS_30.0_GN_100_L_300_Trail_1_flip.png,1,300,30.0,100,3.012050929094422,0.18933684104262524,51.10276873531717,0.2255485799095659,0.0815825,0.0004607263287462501,673.337512946404,0.6467369313275492
151,300L_GN_2.0_6.0_25_225_trail_1/GS_30.0_GN_100_L_300_Trail_1_mirror_flip.png,1,300,30.0,100,3.012050929094422,0.18933684104262524,51.10276873531717,0.2255485799095659,0.0815825,0.0004607263287462501,673.337512946404,0.6467369313275492
152,300L_GN_2.0_6.0_25_225_trail_1/GS_29.139_GN_106_L_300_Trail_1_orig.png,1,300,29.138575870717926,106,4.120817995213801,0.1362416902457875,50.89178781973637,0.607698761101022,0.08306600000000001,0.0013093448743551107,655.0117322310982,0.5568777724525779
153,300L_GN_2.0_6.0_25_225_trail_1/GS_29.139_GN_106_L_300_Trail_1_mirror.png,1,300,29.138575870717926,106,4.120817995213801,0.1362416902457875,50.89178781973637,0.607698761101022,0.08306600000000001,0.0013093448743551107,655.0117322310982,0.5568777724525779
154,300L_GN_2.0_6.0_25_225_trail_1/GS_29.139_GN_106_L_300_Trail_1_flip.png,1,300,29.138575870717926,106,4.120817995213801,0.1362416902457875,50.89178781973637,0.607698761101022,0.08306600000000001,0.0013093448743551107,655.0117322310982,0.5568777724525779
155,300L_GN_2.0_6.0_25_225_trail_1/GS_29.139_GN_106_L_300_Trail_1_mirror_flip.png,1,300,29.138575870717926,106,4.120817995213801,0.1362416902457875,50.89178781973637,0.607698761101022,0.08306600000000001,0.0013093448743551107,655.0117322310982,0.5568777724525779
156,300L_GN_2.0_6.0_25_225_trail_1/GS_28.347_GN_112_L_300_Trail_1_orig.png,1,300,28.34733547569204,112,3.6961761739444734,0.2629303376158934,52.47873440500568,0.7811450721390235,0.08737,0.0012414185434413319,633.624661127801,2.6453730318876882
157,300L_GN_2.0_6.0_25_225_trail_1/GS_28.347_GN_112_L_300_Trail_1_mirror.png,1,300,28.34733547569204,112,3.6961761739444734,0.2629303376158934,52.47873440500568,0.7811450721390235,0.08737,0.0012414185434413319,633.624661127801,2.6453730318876882
158,300L_GN_2.0_6.0_25_225_trail_1/GS_28.347_GN_112_L_300_Trail_1_flip.png,1,300,28.34733547569204,112,3.6961761739444734,0.2629303376158934,52.47873440500568,0.7811450721390235,0.08737,0.0012414185434413319,633.624661127801,2.6453730318876882
159,300L_GN_2.0_6.0_25_225_trail_1/GS_28.347_GN_112_L_300_Trail_1_mirror_flip.png,1,300,28.34733547569204,112,3.6961761739444734,0.2629303376158934,52.47873440500568,0.7811450721390235,0.08737,0.0012414185434413319,633.624661127801,2.6453730318876882
160,300L_GN_2.0_6.0_25_225_trail_1/GS_27.501_GN_119_L_300_Trail_1_orig.png,1,300,27.50095491084634,119,4.141818208454285,0.3259058788516589,46.683752520832385,1.2563102993073916,0.07437000000000002,0.002050004878042976,664.7925407360643,0.8569241732385753
161,300L_GN_2.0_6.0_25_225_trail_1/GS_27.501_GN_119_L_300_Trail_1_mirror.png,1,300,27.50095491084634,119,4.141818208454285,0.3259058788516589,46.683752520832385,1.2563102993073916,0.07437000000000002,0.002050004878042976,664.7925407360643,0.8569241732385753
162,300L_GN_2.0_6.0_25_225_trail_1/GS_27.501_GN_119_L_300_Trail_1_flip.png,1,300,27.50095491084634,119,4.141818208454285,0.3259058788516589,46.683752520832385,1.2563102993073916,0.07437000000000002,0.002050004878042976,664.7925407360643,0.8569241732385753
163,300L_GN_2.0_6.0_25_225_trail_1/GS_27.501_GN_119_L_300_Trail_1_mirror_flip.png,1,300,27.50095491084634,119,4.141818208454285,0.3259058788516589,46.683752520832385,1.2563102993073916,0.07437000000000002,0.002050004878042976,664.7925407360643,0.8569241732385753
164,300L_GN_2.0_6.0_25_225_trail_1/GS_26.726_GN_126_L_300_Trail_1_orig.png,1,300,26.726124191242437,126,4.180856805876821,0.43874483237278855,45.06313438663654,1.1424095469131614,0.07495199999999999,0.0014536629595611266,646.5515972630234,0.947511399793483
165,300L_GN_2.0_6.0_25_225_trail_1/GS_26.726_GN_126_L_300_Trail_1_mirror.png,1,300,26.726124191242437,126,4.180856805876821,0.43874483237278855,45.06313438663654,1.1424095469131614,0.07495199999999999,0.0014536629595611266,646.5515972630234,0.947511399793483
166,300L_GN_2.0_6.0_25_225_trail_1/GS_26.726_GN_126_L_300_Trail_1_flip.png,1,300,26.726124191242437,126,4.180856805876821,0.43874483237278855,45.06313438663654,1.1424095469131614,0.07495199999999999,0.0014536629595611266,646.5515972630234,0.947511399793483
167,300L_GN_2.0_6.0_25_225_trail_1/GS_26.726_GN_126_L_300_Trail_1_mirror_flip.png,1,300,26.726124191242437,126,4.180856805876821,0.43874483237278855,45.06313438663654,1.1424095469131614,0.07495199999999999,0.0014536629595611266,646.5515972630234,0.947511399793483
168,300L_GN_2.0_6.0_25_225_trail_1/GS_26.112_GN_132_L_300_Trail_1_orig.png,1,300,26.111648393354677,132,3.5141951580078286,0.41227955681386375,52.90696462894316,1.1972414964934026,0.08712800000000001,0.002336684831122934,643.2368220894234,1.6220814093339808
169,300L_GN_2.0_6.0_25_225_trail_1/GS_26.112_GN_132_L_300_Trail_1_mirror.png,1,300,26.111648393354677,132,3.5141951580078286,0.41227955681386375,52.90696462894316,1.1972414964934026,0.08712800000000001,0.002336684831122934,643.2368220894234,1.6220814093339808
170,300L_GN_2.0_6.0_25_225_trail_1/GS_26.112_GN_132_L_300_Trail_1_flip.png,1,300,26.111648393354677,132,3.5141951580078286,0.41227955681386375,52.90696462894316,1.1972414964934026,0.08712800000000001,0.002336684831122934,643.2368220894234,1.6220814093339808
171,300L_GN_2.0_6.0_25_225_trail_1/GS_26.112_GN_132_L_300_Trail_1_mirror_flip.png,1,300,26.111648393354677,132,3.5141951580078286,0.41227955681386375,52.90696462894316,1.1972414964934026,0.08712800000000001,0.002336684831122934,643.2368220894234,1.6220814093339808
172,300L_GN_2.0_6.0_25_225_trail_1/GS_25.0_GN_144_L_300_Trail_1_orig.png,1,300,25.0,144,4.427792034589601,0.1656717477146381,47.70921167542433,0.9045383913506255,0.07942400000000001,0.001520613034272689,641.0766748129944,1.8991927428811544
173,300L_GN_2.0_6.0_25_225_trail_1/GS_25.0_GN_144_L_300_Trail_1_mirror.png,1,300,25.0,144,4.427792034589601,0.1656717477146381,47.70921167542433,0.9045383913506255,0.07942400000000001,0.001520613034272689,641.0766748129944,1.8991927428811544
174,300L_GN_2.0_6.0_25_225_trail_1/GS_25.0_GN_144_L_300_Trail_1_flip.png,1,300,25.0,144,4.427792034589601,0.1656717477146381,47.70921167542433,0.9045383913506255,0.07942400000000001,0.001520613034272689,641.0766748129944,1.8991927428811544
175,300L_GN_2.0_6.0_25_225_trail_1/GS_25.0_GN_144_L_300_Trail_1_mirror_flip.png,1,300,25.0,144,4.427792034589601,0.1656717477146381,47.70921167542433,0.9045383913506255,0.07942400000000001,0.001520613034272689,641.0766748129944,1.8991927428811544
176,300L_GN_2.0_6.0_25_225_trail_1/GS_24.333_GN_152_L_300_Trail_1_orig.png,1,300,24.333213169614382,152,4.365331670489972,0.3606042814463764,43.52962427692542,1.24216733936318,0.07096400000000001,0.0018902973311095792,646.1457088796926,1.422389965669644
177,300L_GN_2.0_6.0_25_225_trail_1/GS_24.333_GN_152_L_300_Trail_1_mirror.png,1,300,24.333213169614382,152,4.365331670489972,0.3606042814463764,43.52962427692542,1.24216733936318,0.07096400000000001,0.0018902973311095792,646.1457088796926,1.422389965669644
178,300L_GN_2.0_6.0_25_225_trail_1/GS_24.333_GN_152_L_300_Trail_1_flip.png,1,300,24.333213169614382,152,4.365331670489972,0.3606042814463764,43.52962427692542,1.24216733936318,0.07096400000000001,0.0018902973311095792,646.1457088796926,1.422389965669644
179,300L_GN_2.0_6.0_25_225_trail_1/GS_24.333_GN_152_L_300_Trail_1_mirror_flip.png,1,300,24.333213169614382,152,4.365331670489972,0.3606042814463764,43.52962427692542,1.24216733936318,0.07096400000000001,0.0018902973311095792,646.1457088796926,1.422389965669644
180,300L_GN_2.0_6.0_25_225_trail_1/GS_23.717_GN_160_L_300_Trail_1_orig.png,1,300,23.717082451262844,160,3.2462428922341124,0.16797597231067277,48.86242120651016,0.37712003042832676,0.080162,0.0006650533813161209,638.153538554433,1.1826676799964777
181,300L_GN_2.0_6.0_25_225_trail_1/GS_23.717_GN_160_L_300_Trail_1_mirror.png,1,300,23.717082451262844,160,3.2462428922341124,0.16797597231067277,48.86242120651016,0.37712003042832676,0.080162,0.0006650533813161209,638.153538554433,1.1826676799964777
182,300L_GN_2.0_6.0_25_225_trail_1/GS_23.717_GN_160_L_300_Trail_1_flip.png,1,300,23.717082451262844,160,3.2462428922341124,0.16797597231067277,48.86242120651016,0.37712003042832676,0.080162,0.0006650533813161209,638.153538554433,1.1826676799964777
183,300L_GN_2.0_6.0_25_225_trail_1/GS_23.717_GN_160_L_300_Trail_1_mirror_flip.png,1,300,23.717082451262844,160,3.2462428922341124,0.16797597231067277,48.86242120651016,0.37712003042832676,0.080162,0.0006650533813161209,638.153538554433,1.1826676799964777
184,300L_GN_2.0_6.0_25_225_trail_1/GS_23.146_GN_168_L_300_Trail_1_orig.png,1,300,23.145502494313785,168,4.174874235511775,0.1938748109182054,45.2808098294109,0.7233141271399539,0.07544800000000002,0.001130405237072087,631.8948838167123,1.3812054854468896
185,300L_GN_2.0_6.0_25_225_trail_1/GS_23.146_GN_168_L_300_Trail_1_mirror.png,1,300,23.145502494313785,168,4.174874235511775,0.1938748109182054,45.2808098294109,0.7233141271399539,0.07544800000000002,0.001130405237072087,631.8948838167123,1.3812054854468896
186,300L_GN_2.0_6.0_25_225_trail_1/GS_23.146_GN_168_L_300_Trail_1_flip.png,1,300,23.145502494313785,168,4.174874235511775,0.1938748109182054,45.2808098294109,0.7233141271399539,0.07544800000000002,0.001130405237072087,631.8948838167123,1.3812054854468896
187,300L_GN_2.0_6.0_25_225_trail_1/GS_23.146_GN_168_L_300_Trail_1_mirror_flip.png,1,300,23.145502494313785,168,4.174874235511775,0.1938748109182054,45.2808098294109,0.7233141271399539,0.07544800000000002,0.001130405237072087,631.8948838167123,1.3812054854468896
188,300L_GN_2.0_6.0_25_225_trail_1/GS_22.486_GN_178_L_300_Trail_1_orig.png,1,300,22.48595066987584,178,3.5255881107052716,0.35606054054354436,48.649328089983385,0.851172740865199,0.07997800000000002,0.0012001899849607134,641.6259327064447,1.6987373781793242
189,300L_GN_2.0_6.0_25_225_trail_1/GS_22.486_GN_178_L_300_Trail_1_mirror.png,1,300,22.48595066987584,178,3.5255881107052716,0.35606054054354436,48.649328089983385,0.851172740865199,0.07997800000000002,0.0012001899849607134,641.6259327064447,1.6987373781793242
190,300L_GN_2.0_6.0_25_225_trail_1/GS_22.486_GN_178_L_300_Trail_1_flip.png,1,300,22.48595066987584,178,3.5255881107052716,0.35606054054354436,48.649328089983385,0.851172740865199,0.07997800000000002,0.0012001899849607134,641.6259327064447,1.6987373781793242
191,300L_GN_2.0_6.0_25_225_trail_1/GS_22.486_GN_178_L_300_Trail_1_mirror_flip.png,1,300,22.48595066987584,178,3.5255881107052716,0.35606054054354436,48.649328089983385,0.851172740865199,0.07997800000000002,0.0012001899849607134,641.6259327064447,1.6987373781793242
192,300L_GN_2.0_6.0_25_225_trail_1/GS_21.213_GN_200_L_300_Trail_1_orig.png,1,300,21.213203435596427,200,4.518364131614757,0.6080052356327446,46.281106582325904,0.6769022794873194,0.07775000000000001,0.0020015993605114898,619.9739058343947,2.185633241538136
193,300L_GN_2.0_6.0_25_225_trail_1/GS_21.213_GN_200_L_300_Trail_1_mirror.png,1,300,21.213203435596427,200,4.518364131614757,0.6080052356327446,46.281106582325904,0.6769022794873194,0.07775000000000001,0.0020015993605114898,619.9739058343947,2.185633241538136
194,300L_GN_2.0_6.0_25_225_trail_1/GS_21.213_GN_200_L_300_Trail_1_flip.png,1,300,21.213203435596427,200,4.518364131614757,0.6080052356327446,46.281106582325904,0.6769022794873194,0.07775000000000001,0.0020015993605114898,619.9739058343947,2.185633241538136
195,300L_GN_2.0_6.0_25_225_trail_1/GS_21.213_GN_200_L_300_Trail_1_mirror_flip.png,1,300,21.213203435596427,200,4.518364131614757,0.6080052356327446,46.281106582325904,0.6769022794873194,0.07775000000000001,0.0020015993605114898,619.9739058343947,2.185633241538136
196,300L_GN_2.0_6.0_25_225_trail_1/GS_20.0_GN_225_L_300_Trail_1_orig.png,1,300,20.0,225,3.510079831101393,0.2582298710776113,44.82795818534109,0.4556870821072892,0.07206800000000001,0.0007572951868327191,642.5261799686198,1.9569954314211264
197,300L_GN_2.0_6.0_25_225_trail_1/GS_20.0_GN_225_L_300_Trail_1_mirror.png,1,300,20.0,225,3.510079831101393,0.2582298710776113,44.82795818534109,0.4556870821072892,0.07206800000000001,0.0007572951868327191,642.5261799686198,1.9569954314211264
198,300L_GN_2.0_6.0_25_225_trail_1/GS_20.0_GN_225_L_300_Trail_1_flip.png,1,300,20.0,225,3.510079831101393,0.2582298710776113,44.82795818534109,0.4556870821072892,0.07206800000000001,0.0007572951868327191,642.5261799686198,1.9569954314211264
199,300L_GN_2.0_6.0_25_225_trail_1/GS_20.0_GN_225_L_300_Trail_1_mirror_flip.png,1,300,20.0,225,3.510079831101393,0.2582298710776113,44.82795818534109,0.4556870821072892,0.07206800000000001,0.0007572951868327191,642.5261799686198,1.9569954314211264
200,300L_GN_2.0_6.0_25_225_trail_2/GS_60.0_GN_25_L_300_Trail_2_orig.png,2,300,60.0,25,4.356031386407033,0.5236916765381215,57.51230169661177,1.0057507350064978,0.089226,0.0018826215764194349,705.7085178932635,1.318339201023515
201,300L_GN_2.0_6.0_25_225_trail_2/GS_60.0_GN_25_L_300_Trail_2_mirror.png,2,300,60.0,25,4.356031386407033,0.5236916765381215,57.51230169661177,1.0057507350064978,0.089226,0.0018826215764194349,705.7085178932635,1.318339201023515
202,300L_GN_2.0_6.0_25_225_trail_2/GS_60.0_GN_25_L_300_Trail_2_flip.png,2,300,60.0,25,4.356031386407033,0.5236916765381215,57.51230169661177,1.0057507350064978,0.089226,0.0018826215764194349,705.7085178932635,1.318339201023515
203,300L_GN_2.0_6.0_25_225_trail_2/GS_60.0_GN_25_L_300_Trail_2_mirror_flip.png,2,300,60.0,25,4.356031386407033,0.5236916765381215,57.51230169661177,1.0057507350064978,0.089226,0.0018826215764194349,705.7085178932635,1.318339201023515
204,300L_GN_2.0_6.0_25_225_trail_2/GS_58.835_GN_26_L_300_Trail_2_orig.png,2,300,58.834840541455215,26,3.56420424170783,0.31974740914301214,50.875763471475956,1.6326567490635375,0.07186200000000001,0.002142422927435198,750.0866307317694,1.352504470015095
205,300L_GN_2.0_6.0_25_225_trail_2/GS_58.835_GN_26_L_300_Trail_2_mirror.png,2,300,58.834840541455215,26,3.56420424170783,0.31974740914301214,50.875763471475956,1.6326567490635375,0.07186200000000001,0.002142422927435198,750.0866307317694,1.352504470015095
206,300L_GN_2.0_6.0_25_225_trail_2/GS_58.835_GN_26_L_300_Trail_2_flip.png,2,300,58.834840541455215,26,3.56420424170783,0.31974740914301214,50.875763471475956,1.6326567490635375,0.07186200000000001,0.002142422927435198,750.0866307317694,1.352504470015095
207,300L_GN_2.0_6.0_25_225_trail_2/GS_58.835_GN_26_L_300_Trail_2_mirror_flip.png,2,300,58.834840541455215,26,3.56420424170783,0.31974740914301214,50.875763471475956,1.6326567490635375,0.07186200000000001,0.002142422927435198,750.0866307317694,1.352504470015095
208,300L_GN_2.0_6.0_25_225_trail_2/GS_57.735_GN_27_L_300_Trail_2_orig.png,2,300,57.735026918962575,27,3.919479385885073,0.27415158678058954,52.38770223989242,0.4858219561353666,0.07799200000000002,0.0011403403000859024,716.9513972568582,1.8148885685053535
209,300L_GN_2.0_6.0_25_225_trail_2/GS_57.735_GN_27_L_300_Trail_2_mirror.png,2,300,57.735026918962575,27,3.919479385885073,0.27415158678058954,52.38770223989242,0.4858219561353666,0.07799200000000002,0.0011403403000859024,716.9513972568582,1.8148885685053535
210,300L_GN_2.0_6.0_25_225_trail_2/GS_57.735_GN_27_L_300_Trail_2_flip.png,2,300,57.735026918962575,27,3.919479385885073,0.27415158678058954,52.38770223989242,0.4858219561353666,0.07799200000000002,0.0011403403000859024,716.9513972568582,1.8148885685053535
211,300L_GN_2.0_6.0_25_225_trail_2/GS_57.735_GN_27_L_300_Trail_2_mirror_flip.png,2,300,57.735026918962575,27,3.919479385885073,0.27415158678058954,52.38770223989242,0.4858219561353666,0.07799200000000002,0.0011403403000859024,716.9513972568582,1.8148885685053535
212,300L_GN_2.0_6.0_25_225_trail_2/GS_56.695_GN_28_L_300_Trail_2_orig.png,2,300,56.69467095138408,28,3.151183174237443,0.24737385392003022,51.33633567852498,0.7068130033549872,0.07736400000000002,0.0006064519766642702,716.9947506232845,1.8687421619885198
213,300L_GN_2.0_6.0_25_225_trail_2/GS_56.695_GN_28_L_300_Trail_2_mirror.png,2,300,56.69467095138408,28,3.151183174237443,0.24737385392003022,51.33633567852498,0.7068130033549872,0.07736400000000002,0.0006064519766642702,716.9947506232845,1.8687421619885198
214,300L_GN_2.0_6.0_25_225_trail_2/GS_56.695_GN_28_L_300_Trail_2_flip.png,2,300,56.69467095138408,28,3.151183174237443,0.24737385392003022,51.33633567852498,0.7068130033549872,0.07736400000000002,0.0006064519766642702,716.9947506232845,1.8687421619885198
215,300L_GN_2.0_6.0_25_225_trail_2/GS_56.695_GN_28_L_300_Trail_2_mirror_flip.png,2,300,56.69467095138408,28,3.151183174237443,0.24737385392003022,51.33633567852498,0.7068130033549872,0.07736400000000002,0.0006064519766642702,716.9947506232845,1.8687421619885198
216,300L_GN_2.0_6.0_25_225_trail_2/GS_55.709_GN_29_L_300_Trail_2_orig.png,2,300,55.70860145311556,29,3.6692018705369,0.12395262109076145,53.199548219972904,0.27323294707149304,0.08065400000000002,0.000657194035274211,713.1861792724387,1.9166106990343286
217,300L_GN_2.0_6.0_25_225_trail_2/GS_55.709_GN_29_L_300_Trail_2_mirror.png,2,300,55.70860145311556,29,3.6692018705369,0.12395262109076145,53.199548219972904,0.27323294707149304,0.08065400000000002,0.000657194035274211,713.1861792724387,1.9166106990343286
218,300L_GN_2.0_6.0_25_225_trail_2/GS_55.709_GN_29_L_300_Trail_2_flip.png,2,300,55.70860145311556,29,3.6692018705369,0.12395262109076145,53.199548219972904,0.27323294707149304,0.08065400000000002,0.000657194035274211,713.1861792724387,1.9166106990343286
219,300L_GN_2.0_6.0_25_225_trail_2/GS_55.709_GN_29_L_300_Trail_2_mirror_flip.png,2,300,55.70860145311556,29,3.6692018705369,0.12395262109076145,53.199548219972904,0.27323294707149304,0.08065400000000002,0.000657194035274211,713.1861792724387,1.9166106990343286
220,300L_GN_2.0_6.0_25_225_trail_2/GS_54.772_GN_30_L_300_Trail_2_orig.png,2,300,54.772255750516614,30,5.538331100360121,0.7629854255777851,52.51393252194257,1.3278868410073863,0.07959600000000001,0.0019979549544471733,715.4662592085965,0.41630444100631325
221,300L_GN_2.0_6.0_25_225_trail_2/GS_54.772_GN_30_L_300_Trail_2_mirror.png,2,300,54.772255750516614,30,5.538331100360121,0.7629854255777851,52.51393252194257,1.3278868410073863,0.07959600000000001,0.0019979549544471733,715.4662592085965,0.41630444100631325
222,300L_GN_2.0_6.0_25_225_trail_2/GS_54.772_GN_30_L_300_Trail_2_flip.png,2,300,54.772255750516614,30,5.538331100360121,0.7629854255777851,52.51393252194257,1.3278868410073863,0.07959600000000001,0.0019979549544471733,715.4662592085965,0.41630444100631325
223,300L_GN_2.0_6.0_25_225_trail_2/GS_54.772_GN_30_L_300_Trail_2_mirror_flip.png,2,300,54.772255750516614,30,5.538331100360121,0.7629854255777851,52.51393252194257,1.3278868410073863,0.07959600000000001,0.0019979549544471733,715.4662592085965,0.41630444100631325
224,300L_GN_2.0_6.0_25_225_trail_2/GS_53.882_GN_31_L_300_Trail_2_orig.png,2,300,53.881590608032475,31,3.977259804345175,0.21212946900733654,52.858514373887125,0.4955922627284229,0.07848000000000001,0.0007951100552753673,725.6544641871645,0.9748249983470482
225,300L_GN_2.0_6.0_25_225_trail_2/GS_53.882_GN_31_L_300_Trail_2_mirror.png,2,300,53.881590608032475,31,3.977259804345175,0.21212946900733654,52.858514373887125,0.4955922627284229,0.07848000000000001,0.0007951100552753673,725.6544641871645,0.9748249983470482
226,300L_GN_2.0_6.0_25_225_trail_2/GS_53.882_GN_31_L_300_Trail_2_flip.png,2,300,53.881590608032475,31,3.977259804345175,0.21212946900733654,52.858514373887125,0.4955922627284229,0.07848000000000001,0.0007951100552753673,725.6544641871645,0.9748249983470482
227,300L_GN_2.0_6.0_25_225_trail_2/GS_53.882_GN_31_L_300_Trail_2_mirror_flip.png,2,300,53.881590608032475,31,3.977259804345175,0.21212946900733654,52.858514373887125,0.4955922627284229,0.07848000000000001,0.0007951100552753673,725.6544641871645,0.9748249983470482
228,300L_GN_2.0_6.0_25_225_trail_2/GS_53.033_GN_32_L_300_Trail_2_orig.png,2,300,53.03300858899106,32,4.732859370428185,0.6862036866070604,56.0748107525032,0.5869815462680052,0.086108,0.0012984205790112873,714.2503926436084,1.2870461541766067
229,300L_GN_2.0_6.0_25_225_trail_2/GS_53.033_GN_32_L_300_Trail_2_mirror.png,2,300,53.03300858899106,32,4.732859370428185,0.6862036866070604,56.0748107525032,0.5869815462680052,0.086108,0.0012984205790112873,714.2503926436084,1.2870461541766067
230,300L_GN_2.0_6.0_25_225_trail_2/GS_53.033_GN_32_L_300_Trail_2_flip.png,2,300,53.03300858899106,32,4.732859370428185,0.6862036866070604,56.0748107525032,0.5869815462680052,0.086108,0.0012984205790112873,714.2503926436084,1.2870461541766067
231,300L_GN_2.0_6.0_25_225_trail_2/GS_53.033_GN_32_L_300_Trail_2_mirror_flip.png,2,300,53.03300858899106,32,4.732859370428185,0.6862036866070604,56.0748107525032,0.5869815462680052,0.086108,0.0012984205790112873,714.2503926436084,1.2870461541766067
232,300L_GN_2.0_6.0_25_225_trail_2/GS_52.223_GN_33_L_300_Trail_2_orig.png,2,300,52.223296786709355,33,3.306014935060342,0.6792020265359292,53.377994469392796,0.9723498563620767,0.07820200000000002,0.0016251203032391192,718.9579154466567,0.4743183789609841
233,300L_GN_2.0_6.0_25_225_trail_2/GS_52.223_GN_33_L_300_Trail_2_mirror.png,2,300,52.223296786709355,33,3.306014935060342,0.6792020265359292,53.377994469392796,0.9723498563620767,0.07820200000000002,0.0016251203032391192,718.9579154466567,0.4743183789609841
234,300L_GN_2.0_6.0_25_225_trail_2/GS_52.223_GN_33_L_300_Trail_2_flip.png,2,300,52.223296786709355,33,3.306014935060342,0.6792020265359292,53.377994469392796,0.9723498563620767,0.07820200000000002,0.0016251203032391192,718.9579154466567,0.4743183789609841
235,300L_GN_2.0_6.0_25_225_trail_2/GS_52.223_GN_33_L_300_Trail_2_mirror_flip.png,2,300,52.223296786709355,33,3.306014935060342,0.6792020265359292,53.377994469392796,0.9723498563620767,0.07820200000000002,0.0016251203032391192,718.9579154466567,0.4743183789609841
236,300L_GN_2.0_6.0_25_225_trail_2/GS_51.45_GN_34_L_300_Trail_2_orig.png,2,300,51.44957554275265,34,4.08751163370504,0.3262045600498641,54.850587833190936,0.4302718737492052,0.084054,0.001144859816746139,705.9617619173238,0.7637406198445801
237,300L_GN_2.0_6.0_25_225_trail_2/GS_51.45_GN_34_L_300_Trail_2_mirror.png,2,300,51.44957554275265,34,4.08751163370504,0.3262045600498641,54.850587833190936,0.4302718737492052,0.084054,0.001144859816746139,705.9617619173238,0.7637406198445801
238,300L_GN_2.0_6.0_25_225_trail_2/GS_51.45_GN_34_L_300_Trail_2_flip.png,2,300,51.44957554275265,34,4.08751163370504,0.3262045600498641,54.850587833190936,0.4302718737492052,0.084054,0.001144859816746139,705.9617619173238,0.7637406198445801
239,300L_GN_2.0_6.0_25_225_trail_2/GS_51.45_GN_34_L_300_Trail_2_mirror_flip.png,2,300,51.44957554275265,34,4.08751163370504,0.3262045600498641,54.850587833190936,0.4302718737492052,0.084054,0.001144859816746139,705.9617619173238,0.7637406198445801
240,300L_GN_2.0_6.0_25_225_trail_2/GS_50.709_GN_35_L_300_Trail_2_orig.png,2,300,50.709255283710995,35,3.748442062584476,0.3298578371193747,54.06834334293616,0.826174093316047,0.082456,0.001403732168185942,707.3569461545267,1.675155969178935
241,300L_GN_2.0_6.0_25_225_trail_2/GS_50.709_GN_35_L_300_Trail_2_mirror.png,2,300,50.709255283710995,35,3.748442062584476,0.3298578371193747,54.06834334293616,0.826174093316047,0.082456,0.001403732168185942,707.3569461545267,1.675155969178935
242,300L_GN_2.0_6.0_25_225_trail_2/GS_50.709_GN_35_L_300_Trail_2_flip.png,2,300,50.709255283710995,35,3.748442062584476,0.3298578371193747,54.06834334293616,0.826174093316047,0.082456,0.001403732168185942,707.3569461545267,1.675155969178935
243,300L_GN_2.0_6.0_25_225_trail_2/GS_50.709_GN_35_L_300_Trail_2_mirror_flip.png,2,300,50.709255283710995,35,3.748442062584476,0.3298578371193747,54.06834334293616,0.826174093316047,0.082456,0.001403732168185942,707.3569461545267,1.675155969178935
244,300L_GN_2.0_6.0_25_225_trail_2/GS_50.0_GN_36_L_300_Trail_2_orig.png,2,300,50.0,36,4.424077546873753,0.2981724797129657,52.26980085364348,0.7124709726431727,0.078866,0.0011571447619031943,706.9093327493835,1.138635856231952
245,300L_GN_2.0_6.0_25_225_trail_2/GS_50.0_GN_36_L_300_Trail_2_mirror.png,2,300,50.0,36,4.424077546873753,0.2981724797129657,52.26980085364348,0.7124709726431727,0.078866,0.0011571447619031943,706.9093327493835,1.138635856231952
246,300L_GN_2.0_6.0_25_225_trail_2/GS_50.0_GN_36_L_300_Trail_2_flip.png,2,300,50.0,36,4.424077546873753,0.2981724797129657,52.26980085364348,0.7124709726431727,0.078866,0.0011571447619031943,706.9093327493835,1.138635856231952
247,300L_GN_2.0_6.0_25_225_trail_2/GS_50.0_GN_36_L_300_Trail_2_mirror_flip.png,2,300,50.0,36,4.424077546873753,0.2981724797129657,52.26980085364348,0.7124709726431727,0.078866,0.0011571447619031943,706.9093327493835,1.138635856231952
248,300L_GN_2.0_6.0_25_225_trail_2/GS_49.32_GN_37_L_300_Trail_2_orig.png,2,300,49.31969619160719,37,4.3126234710032145,0.6508517326826118,57.49251340821729,0.3286086116059225,0.084376,0.0005917634662599637,726.5988752264909,0.8504848138915757
249,300L_GN_2.0_6.0_25_225_trail_2/GS_49.32_GN_37_L_300_Trail_2_mirror.png,2,300,49.31969619160719,37,4.3126234710032145,0.6508517326826118,57.49251340821729,0.3286086116059225,0.084376,0.0005917634662599637,726.5988752264909,0.8504848138915757
250,300L_GN_2.0_6.0_25_225_trail_2/GS_49.32_GN_37_L_300_Trail_2_flip.png,2,300,49.31969619160719,37,4.3126234710032145,0.6508517326826118,57.49251340821729,0.3286086116059225,0.084376,0.0005917634662599637,726.5988752264909,0.8504848138915757
251,300L_GN_2.0_6.0_25_225_trail_2/GS_49.32_GN_37_L_300_Trail_2_mirror_flip.png,2,300,49.31969619160719,37,4.3126234710032145,0.6508517326826118,57.49251340821729,0.3286086116059225,0.084376,0.0005917634662599637,726.5988752264909,0.8504848138915757
252,300L_GN_2.0_6.0_25_225_trail_2/GS_48.666_GN_38_L_300_Trail_2_orig.png,2,300,48.666426339228764,38,3.719775685525575,0.21774459306843744,49.03121368086265,0.342555856957317,0.075854,0.0006244549623471631,699.3074668405501,1.2586848323093949
253,300L_GN_2.0_6.0_25_225_trail_2/GS_48.666_GN_38_L_300_Trail_2_mirror.png,2,300,48.666426339228764,38,3.719775685525575,0.21774459306843744,49.03121368086265,0.342555856957317,0.075854,0.0006244549623471631,699.3074668405501,1.2586848323093949
254,300L_GN_2.0_6.0_25_225_trail_2/GS_48.666_GN_38_L_300_Trail_2_flip.png,2,300,48.666426339228764,38,3.719775685525575,0.21774459306843744,49.03121368086265,0.342555856957317,0.075854,0.0006244549623471631,699.3074668405501,1.2586848323093949
255,300L_GN_2.0_6.0_25_225_trail_2/GS_48.666_GN_38_L_300_Trail_2_mirror_flip.png,2,300,48.666426339228764,38,3.719775685525575,0.21774459306843744,49.03121368086265,0.342555856957317,0.075854,0.0006244549623471631,699.3074668405501,1.2586848323093949
256,300L_GN_2.0_6.0_25_225_trail_2/GS_48.038_GN_39_L_300_Trail_2_orig.png,2,300,48.03844614152614,39,4.308437157227927,0.10288077069525904,51.140718274947744,0.9039112276282608,0.077108,0.0013922413583858225,709.0226280170427,1.465623145499078
257,300L_GN_2.0_6.0_25_225_trail_2/GS_48.038_GN_39_L_300_Trail_2_mirror.png,2,300,48.03844614152614,39,4.308437157227927,0.10288077069525904,51.140718274947744,0.9039112276282608,0.077108,0.0013922413583858225,709.0226280170427,1.465623145499078
258,300L_GN_2.0_6.0_25_225_trail_2/GS_48.038_GN_39_L_300_Trail_2_flip.png,2,300,48.03844614152614,39,4.308437157227927,0.10288077069525904,51.140718274947744,0.9039112276282608,0.077108,0.0013922413583858225,709.0226280170427,1.465623145499078
259,300L_GN_2.0_6.0_25_225_trail_2/GS_48.038_GN_39_L_300_Trail_2_mirror_flip.png,2,300,48.03844614152614,39,4.308437157227927,0.10288077069525904,51.140718274947744,0.9039112276282608,0.077108,0.0013922413583858225,709.0226280170427,1.465623145499078
260,300L_GN_2.0_6.0_25_225_trail_2/GS_47.434_GN_40_L_300_Trail_2_orig.png,2,300,47.43416490252569,40,3.672390032696815,0.20468154235030395,50.33892789698963,0.3245948258502895,0.077212,0.0005007354590999115,693.089869736708,1.290595432903239
261,300L_GN_2.0_6.0_25_225_trail_2/GS_47.434_GN_40_L_300_Trail_2_mirror.png,2,300,47.43416490252569,40,3.672390032696815,0.20468154235030395,50.33892789698963,0.3245948258502895,0.077212,0.0005007354590999115,693.089869736708,1.290595432903239
262,300L_GN_2.0_6.0_25_225_trail_2/GS_47.434_GN_40_L_300_Trail_2_flip.png,2,300,47.43416490252569,40,3.672390032696815,0.20468154235030395,50.33892789698963,0.3245948258502895,0.077212,0.0005007354590999115,693.089869736708,1.290595432903239
263,300L_GN_2.0_6.0_25_225_trail_2/GS_47.434_GN_40_L_300_Trail_2_mirror_flip.png,2,300,47.43416490252569,40,3.672390032696815,0.20468154235030395,50.33892789698963,0.3245948258502895,0.077212,0.0005007354590999115,693.089869736708,1.290595432903239
264,300L_GN_2.0_6.0_25_225_trail_2/GS_46.852_GN_41_L_300_Trail_2_orig.png,2,300,46.85212856658182,41,3.7980293373123906,0.6078452219967476,53.293893077808754,1.4392524418992816,0.081072,0.002437485589700995,703.6877121518971,0.708685082669509
265,300L_GN_2.0_6.0_25_225_trail_2/GS_46.852_GN_41_L_300_Trail_2_mirror.png,2,300,46.85212856658182,41,3.7980293373123906,0.6078452219967476,53.293893077808754,1.4392524418992816,0.081072,0.002437485589700995,703.6877121518971,0.708685082669509
266,300L_GN_2.0_6.0_25_225_trail_2/GS_46.852_GN_41_L_300_Trail_2_flip.png,2,300,46.85212856658182,41,3.7980293373123906,0.6078452219967476,53.293893077808754,1.4392524418992816,0.081072,0.002437485589700995,703.6877121518971,0.708685082669509
267,300L_GN_2.0_6.0_25_225_trail_2/GS_46.852_GN_41_L_300_Trail_2_mirror_flip.png,2,300,46.85212856658182,41,3.7980293373123906,0.6078452219967476,53.293893077808754,1.4392524418992816,0.081072,0.002437485589700995,703.6877121518971,0.708685082669509
268,300L_GN_2.0_6.0_25_225_trail_2/GS_45.75_GN_43_L_300_Trail_2_orig.png,2,300,45.7495710997814,43,4.143446419489217,0.3521744099669342,50.454975775655285,0.7232501112792028,0.07614200000000002,0.0011668144668283823,717.1714547548112,1.6350605044022686
269,300L_GN_2.0_6.0_25_225_trail_2/GS_45.75_GN_43_L_300_Trail_2_mirror.png,2,300,45.7495710997814,43,4.143446419489217,0.3521744099669342,50.454975775655285,0.7232501112792028,0.07614200000000002,0.0011668144668283823,717.1714547548112,1.6350605044022686
270,300L_GN_2.0_6.0_25_225_trail_2/GS_45.75_GN_43_L_300_Trail_2_flip.png,2,300,45.7495710997814,43,4.143446419489217,0.3521744099669342,50.454975775655285,0.7232501112792028,0.07614200000000002,0.0011668144668283823,717.1714547548112,1.6350605044022686
271,300L_GN_2.0_6.0_25_225_trail_2/GS_45.75_GN_43_L_300_Trail_2_mirror_flip.png,2,300,45.7495710997814,43,4.143446419489217,0.3521744099669342,50.454975775655285,0.7232501112792028,0.07614200000000002,0.0011668144668283823,717.1714547548112,1.6350605044022686
272,300L_GN_2.0_6.0_25_225_trail_2/GS_45.227_GN_44_L_300_Trail_2_orig.png,2,300,45.22670168666454,44,3.0704569503951893,0.3061973928950351,55.88833067249245,0.3562045528271585,0.0849,0.0007655847438396346,702.9684844106137,1.3288092030654244
273,300L_GN_2.0_6.0_25_225_trail_2/GS_45.227_GN_44_L_300_Trail_2_mirror.png,2,300,45.22670168666454,44,3.0704569503951893,0.3061973928950351,55.88833067249245,0.3562045528271585,0.0849,0.0007655847438396346,702.9684844106137,1.3288092030654244
274,300L_GN_2.0_6.0_25_225_trail_2/GS_45.227_GN_44_L_300_Trail_2_flip.png,2,300,45.22670168666454,44,3.0704569503951893,0.3061973928950351,55.88833067249245,0.3562045528271585,0.0849,0.0007655847438396346,702.9684844106137,1.3288092030654244
275,300L_GN_2.0_6.0_25_225_trail_2/GS_45.227_GN_44_L_300_Trail_2_mirror_flip.png,2,300,45.22670168666454,44,3.0704569503951893,0.3061973928950351,55.88833067249245,0.3562045528271585,0.0849,0.0007655847438396346,702.9684844106137,1.3288092030654244
276,300L_GN_2.0_6.0_25_225_trail_2/GS_43.759_GN_47_L_300_Trail_2_orig.png,2,300,43.75949744936837,47,5.309634160184651,0.6579448391338756,53.05574566731439,0.5781428559020201,0.07925750000000001,0.001000159362301828,703.512791522583,1.669482506198559
277,300L_GN_2.0_6.0_25_225_trail_2/GS_43.759_GN_47_L_300_Trail_2_mirror.png,2,300,43.75949744936837,47,5.309634160184651,0.6579448391338756,53.05574566731439,0.5781428559020201,0.07925750000000001,0.001000159362301828,703.512791522583,1.669482506198559
278,300L_GN_2.0_6.0_25_225_trail_2/GS_43.759_GN_47_L_300_Trail_2_flip.png,2,300,43.75949744936837,47,5.309634160184651,0.6579448391338756,53.05574566731439,0.5781428559020201,0.07925750000000001,0.001000159362301828,703.512791522583,1.669482506198559
279,300L_GN_2.0_6.0_25_225_trail_2/GS_43.759_GN_47_L_300_Trail_2_mirror_flip.png,2,300,43.75949744936837,47,5.309634160184651,0.6579448391338756,53.05574566731439,0.5781428559020201,0.07925750000000001,0.001000159362301828,703.512791522583,1.669482506198559
280,300L_GN_2.0_6.0_25_225_trail_2/GS_43.301_GN_48_L_300_Trail_2_orig.png,2,300,43.30127018922194,48,3.15109827537855,0.19900365207761891,47.41467539042185,1.1581916881159047,0.07310000000000001,0.0020566283086644512,690.580072732447,0.8786677456624737
281,300L_GN_2.0_6.0_25_225_trail_2/GS_43.301_GN_48_L_300_Trail_2_mirror.png,2,300,43.30127018922194,48,3.15109827537855,0.19900365207761891,47.41467539042185,1.1581916881159047,0.07310000000000001,0.0020566283086644512,690.580072732447,0.8786677456624737
282,300L_GN_2.0_6.0_25_225_trail_2/GS_43.301_GN_48_L_300_Trail_2_flip.png,2,300,43.30127018922194,48,3.15109827537855,0.19900365207761891,47.41467539042185,1.1581916881159047,0.07310000000000001,0.0020566283086644512,690.580072732447,0.8786677456624737
283,300L_GN_2.0_6.0_25_225_trail_2/GS_43.301_GN_48_L_300_Trail_2_mirror_flip.png,2,300,43.30127018922194,48,3.15109827537855,0.19900365207761891,47.41467539042185,1.1581916881159047,0.07310000000000001,0.0020566283086644512,690.580072732447,0.8786677456624737
284,300L_GN_2.0_6.0_25_225_trail_2/GS_42.426_GN_50_L_300_Trail_2_orig.png,2,300,42.42640687119285,50,4.5252594931289325,0.2193177278043822,49.55452060158728,2.3225536647595293,0.07684,0.0038834713852428458,689.3869516506925,0.8127023585550315
285,300L_GN_2.0_6.0_25_225_trail_2/GS_42.426_GN_50_L_300_Trail_2_mirror.png,2,300,42.42640687119285,50,4.5252594931289325,0.2193177278043822,49.55452060158728,2.3225536647595293,0.07684,0.0038834713852428458,689.3869516506925,0.8127023585550315
286,300L_GN_2.0_6.0_25_225_trail_2/GS_42.426_GN_50_L_300_Trail_2_flip.png,2,300,42.42640687119285,50,4.5252594931289325,0.2193177278043822,49.55452060158728,2.3225536647595293,0.07684,0.0038834713852428458,689.3869516506925,0.8127023585550315
287,300L_GN_2.0_6.0_25_225_trail_2/GS_42.426_GN_50_L_300_Trail_2_mirror_flip.png,2,300,42.42640687119285,50,4.5252594931289325,0.2193177278043822,49.55452060158728,2.3225536647595293,0.07684,0.0038834713852428458,689.3869516506925,0.8127023585550315
288,300L_GN_2.0_6.0_25_225_trail_2/GS_41.603_GN_52_L_300_Trail_2_orig.png,2,300,41.60251471689219,52,4.234575469769518,0.3099951067732309,49.47868679398984,2.28499197820821,0.075402,0.003598257355998868,690.203409510716,0.775655698114442
289,300L_GN_2.0_6.0_25_225_trail_2/GS_41.603_GN_52_L_300_Trail_2_mirror.png,2,300,41.60251471689219,52,4.234575469769518,0.3099951067732309,49.47868679398984,2.28499197820821,0.075402,0.003598257355998868,690.203409510716,0.775655698114442
290,300L_GN_2.0_6.0_25_225_trail_2/GS_41.603_GN_52_L_300_Trail_2_flip.png,2,300,41.60251471689219,52,4.234575469769518,0.3099951067732309,49.47868679398984,2.28499197820821,0.075402,0.003598257355998868,690.203409510716,0.775655698114442
291,300L_GN_2.0_6.0_25_225_trail_2/GS_41.603_GN_52_L_300_Trail_2_mirror_flip.png,2,300,41.60251471689219,52,4.234575469769518,0.3099951067732309,49.47868679398984,2.28499197820821,0.075402,0.003598257355998868,690.203409510716,0.775655698114442
292,300L_GN_2.0_6.0_25_225_trail_2/GS_41.208_GN_53_L_300_Trail_2_orig.png,2,300,41.20816918460671,53,4.5186542169889075,0.46317695868596037,48.69391016450759,0.3171046100516698,0.073576,0.0007450530182476964,701.2639249895875,1.612039821697599
293,300L_GN_2.0_6.0_25_225_trail_2/GS_41.208_GN_53_L_300_Trail_2_mirror.png,2,300,41.20816918460671,53,4.5186542169889075,0.46317695868596037,48.69391016450759,0.3171046100516698,0.073576,0.0007450530182476964,701.2639249895875,1.612039821697599
294,300L_GN_2.0_6.0_25_225_trail_2/GS_41.208_GN_53_L_300_Trail_2_flip.png,2,300,41.20816918460671,53,4.5186542169889075,0.46317695868596037,48.69391016450759,0.3171046100516698,0.073576,0.0007450530182476964,701.2639249895875,1.612039821697599
295,300L_GN_2.0_6.0_25_225_trail_2/GS_41.208_GN_53_L_300_Trail_2_mirror_flip.png,2,300,41.20816918460671,53,4.5186542169889075,0.46317695868596037,48.69391016450759,0.3171046100516698,0.073576,0.0007450530182476964,701.2639249895875,1.612039821697599
296,300L_GN_2.0_6.0_25_225_trail_2/GS_40.089_GN_56_L_300_Trail_2_orig.png,2,300,40.08918628686366,56,3.211981575738565,0.10431730142018852,52.88640841711703,1.297638061781053,0.08197,0.00221173009203203,687.2105776170566,1.1671823473834
297,300L_GN_2.0_6.0_25_225_trail_2/GS_40.089_GN_56_L_300_Trail_2_mirror.png,2,300,40.08918628686366,56,3.211981575738565,0.10431730142018852,52.88640841711703,1.297638061781053,0.08197,0.00221173009203203,687.2105776170566,1.1671823473834
298,300L_GN_2.0_6.0_25_225_trail_2/GS_40.089_GN_56_L_300_Trail_2_flip.png,2,300,40.08918628686366,56,3.211981575738565,0.10431730142018852,52.88640841711703,1.297638061781053,0.08197,0.00221173009203203,687.2105776170566,1.1671823473834
299,300L_GN_2.0_6.0_25_225_trail_2/GS_40.089_GN_56_L_300_Trail_2_mirror_flip.png,2,300,40.08918628686366,56,3.211981575738565,0.10431730142018852,52.88640841711703,1.297638061781053,0.08197,0.00221173009203203,687.2105776170566,1.1671823473834
300,300L_GN_2.0_6.0_25_225_trail_2/GS_39.392_GN_58_L_300_Trail_2_orig.png,2,300,39.391929857916764,58,3.8959124558875766,0.4605366409632893,51.38667191965791,0.22016715608098794,0.078672,0.0004148927572276955,701.7622314955809,1.3113599069136943
301,300L_GN_2.0_6.0_25_225_trail_2/GS_39.392_GN_58_L_300_Trail_2_mirror.png,2,300,39.391929857916764,58,3.8959124558875766,0.4605366409632893,51.38667191965791,0.22016715608098794,0.078672,0.0004148927572276955,701.7622314955809,1.3113599069136943
302,300L_GN_2.0_6.0_25_225_trail_2/GS_39.392_GN_58_L_300_Trail_2_flip.png,2,300,39.391929857916764,58,3.8959124558875766,0.4605366409632893,51.38667191965791,0.22016715608098794,0.078672,0.0004148927572276955,701.7622314955809,1.3113599069136943
303,300L_GN_2.0_6.0_25_225_trail_2/GS_39.392_GN_58_L_300_Trail_2_mirror_flip.png,2,300,39.391929857916764,58,3.8959124558875766,0.4605366409632893,51.38667191965791,0.22016715608098794,0.078672,0.0004148927572276955,701.7622314955809,1.3113599069136943
304,300L_GN_2.0_6.0_25_225_trail_2/GS_38.73_GN_60_L_300_Trail_2_orig.png,2,300,38.72983346207417,60,3.2815148993857948,0.18653832395825318,44.07289588008716,0.8217310259346253,0.06979750000000001,0.0012626435561947028,661.2971859262499,1.8556521985342826
305,300L_GN_2.0_6.0_25_225_trail_2/GS_38.73_GN_60_L_300_Trail_2_mirror.png,2,300,38.72983346207417,60,3.2815148993857948,0.18653832395825318,44.07289588008716,0.8217310259346253,0.06979750000000001,0.0012626435561947028,661.2971859262499,1.8556521985342826
306,300L_GN_2.0_6.0_25_225_trail_2/GS_38.73_GN_60_L_300_Trail_2_flip.png,2,300,38.72983346207417,60,3.2815148993857948,0.18653832395825318,44.07289588008716,0.8217310259346253,0.06979750000000001,0.0012626435561947028,661.2971859262499,1.8556521985342826
307,300L_GN_2.0_6.0_25_225_trail_2/GS_38.73_GN_60_L_300_Trail_2_mirror_flip.png,2,300,38.72983346207417,60,3.2815148993857948,0.18653832395825318,44.07289588008716,0.8217310259346253,0.06979750000000001,0.0012626435561947028,661.2971859262499,1.8556521985342826
308,300L_GN_2.0_6.0_25_225_trail_2/GS_38.1_GN_62_L_300_Trail_2_orig.png,2,300,38.10003810005715,62,3.2247433164505046,0.3437909214354988,52.05749332191156,0.9176297598332737,0.07873000000000001,0.0015100331122197303,696.9697787011173,1.8663967639075494
309,300L_GN_2.0_6.0_25_225_trail_2/GS_38.1_GN_62_L_300_Trail_2_mirror.png,2,300,38.10003810005715,62,3.2247433164505046,0.3437909214354988,52.05749332191156,0.9176297598332737,0.07873000000000001,0.0015100331122197303,696.9697787011173,1.8663967639075494
310,300L_GN_2.0_6.0_25_225_trail_2/GS_38.1_GN_62_L_300_Trail_2_flip.png,2,300,38.10003810005715,62,3.2247433164505046,0.3437909214354988,52.05749332191156,0.9176297598332737,0.07873000000000001,0.0015100331122197303,696.9697787011173,1.8663967639075494
311,300L_GN_2.0_6.0_25_225_trail_2/GS_38.1_GN_62_L_300_Trail_2_mirror_flip.png,2,300,38.10003810005715,62,3.2247433164505046,0.3437909214354988,52.05749332191156,0.9176297598332737,0.07873000000000001,0.0015100331122197303,696.9697787011173,1.8663967639075494
312,300L_GN_2.0_6.0_25_225_trail_2/GS_37.5_GN_64_L_300_Trail_2_orig.png,2,300,37.5,64,4.400099618294935,0.2932974689370876,47.78502109942386,1.0292875295435269,0.074634,0.0016451942134593112,680.3219240940424,1.6381170963306715
313,300L_GN_2.0_6.0_25_225_trail_2/GS_37.5_GN_64_L_300_Trail_2_mirror.png,2,300,37.5,64,4.400099618294935,0.2932974689370876,47.78502109942386,1.0292875295435269,0.074634,0.0016451942134593112,680.3219240940424,1.6381170963306715
314,300L_GN_2.0_6.0_25_225_trail_2/GS_37.5_GN_64_L_300_Trail_2_flip.png,2,300,37.5,64,4.400099618294935,0.2932974689370876,47.78502109942386,1.0292875295435269,0.074634,0.0016451942134593112,680.3219240940424,1.6381170963306715
315,300L_GN_2.0_6.0_25_225_trail_2/GS_37.5_GN_64_L_300_Trail_2_mirror_flip.png,2,300,37.5,64,4.400099618294935,0.2932974689370876,47.78502109942386,1.0292875295435269,0.074634,0.0016451942134593112,680.3219240940424,1.6381170963306715
316,300L_GN_2.0_6.0_25_225_trail_2/GS_36.927_GN_66_L_300_Trail_2_orig.png,2,300,36.927447293799815,66,3.1124729394945083,0.24949497143491056,49.68048796134483,0.5063211009241907,0.07683999999999999,0.0009560543917581255,682.8261937483297,1.8010349445176648
317,300L_GN_2.0_6.0_25_225_trail_2/GS_36.927_GN_66_L_300_Trail_2_mirror.png,2,300,36.927447293799815,66,3.1124729394945083,0.24949497143491056,49.68048796134483,0.5063211009241907,0.07683999999999999,0.0009560543917581255,682.8261937483297,1.8010349445176648
318,300L_GN_2.0_6.0_25_225_trail_2/GS_36.927_GN_66_L_300_Trail_2_flip.png,2,300,36.927447293799815,66,3.1124729394945083,0.24949497143491056,49.68048796134483,0.5063211009241907,0.07683999999999999,0.0009560543917581255,682.8261937483297,1.8010349445176648
319,300L_GN_2.0_6.0_25_225_trail_2/GS_36.927_GN_66_L_300_Trail_2_mirror_flip.png,2,300,36.927447293799815,66,3.1124729394945083,0.24949497143491056,49.68048796134483,0.5063211009241907,0.07683999999999999,0.0009560543917581255,682.8261937483297,1.8010349445176648
320,300L_GN_2.0_6.0_25_225_trail_2/GS_36.116_GN_69_L_300_Trail_2_orig.png,2,300,36.11575592573076,69,3.297654311031812,0.2352259438373314,47.1460295583207,0.7380483710199226,0.07353200000000001,0.0014083380276055904,672.3320545454816,1.2129098730882004
321,300L_GN_2.0_6.0_25_225_trail_2/GS_36.116_GN_69_L_300_Trail_2_mirror.png,2,300,36.11575592573076,69,3.297654311031812,0.2352259438373314,47.1460295583207,0.7380483710199226,0.07353200000000001,0.0014083380276055904,672.3320545454816,1.2129098730882004
322,300L_GN_2.0_6.0_25_225_trail_2/GS_36.116_GN_69_L_300_Trail_2_flip.png,2,300,36.11575592573076,69,3.297654311031812,0.2352259438373314,47.1460295583207,0.7380483710199226,0.07353200000000001,0.0014083380276055904,672.3320545454816,1.2129098730882004
323,300L_GN_2.0_6.0_25_225_trail_2/GS_36.116_GN_69_L_300_Trail_2_mirror_flip.png,2,300,36.11575592573076,69,3.297654311031812,0.2352259438373314,47.1460295583207,0.7380483710199226,0.07353200000000001,0.0014083380276055904,672.3320545454816,1.2129098730882004
324,300L_GN_2.0_6.0_25_225_trail_2/GS_34.874_GN_74_L_300_Trail_2_orig.png,2,300,34.87429162314579,74,2.948897845233811,0.32082180017597167,48.637763180652215,0.5498257169901251,0.07574600000000001,0.0009617400896292099,682.6220889165296,1.0875415282465701
325,300L_GN_2.0_6.0_25_225_trail_2/GS_34.874_GN_74_L_300_Trail_2_mirror.png,2,300,34.87429162314579,74,2.948897845233811,0.32082180017597167,48.637763180652215,0.5498257169901251,0.07574600000000001,0.0009617400896292099,682.6220889165296,1.0875415282465701
326,300L_GN_2.0_6.0_25_225_trail_2/GS_34.874_GN_74_L_300_Trail_2_flip.png,2,300,34.87429162314579,74,2.948897845233811,0.32082180017597167,48.637763180652215,0.5498257169901251,0.07574600000000001,0.0009617400896292099,682.6220889165296,1.0875415282465701
327,300L_GN_2.0_6.0_25_225_trail_2/GS_34.874_GN_74_L_300_Trail_2_mirror_flip.png,2,300,34.87429162314579,74,2.948897845233811,0.32082180017597167,48.637763180652215,0.5498257169901251,0.07574600000000001,0.0009617400896292099,682.6220889165296,1.0875415282465701
328,300L_GN_2.0_6.0_25_225_trail_2/GS_33.968_GN_78_L_300_Trail_2_orig.png,2,300,33.96831102433787,78,4.566657268120124,0.30047079806087934,53.70739849557841,0.8305177881073945,0.08345000000000001,0.0014721141260106145,675.9668917208166,1.1747132747449438
329,300L_GN_2.0_6.0_25_225_trail_2/GS_33.968_GN_78_L_300_Trail_2_mirror.png,2,300,33.96831102433787,78,4.566657268120124,0.30047079806087934,53.70739849557841,0.8305177881073945,0.08345000000000001,0.0014721141260106145,675.9668917208166,1.1747132747449438
330,300L_GN_2.0_6.0_25_225_trail_2/GS_33.968_GN_78_L_300_Trail_2_flip.png,2,300,33.96831102433787,78,4.566657268120124,0.30047079806087934,53.70739849557841,0.8305177881073945,0.08345000000000001,0.0014721141260106145,675.9668917208166,1.1747132747449438
331,300L_GN_2.0_6.0_25_225_trail_2/GS_33.968_GN_78_L_300_Trail_2_mirror_flip.png,2,300,33.96831102433787,78,4.566657268120124,0.30047079806087934,53.70739849557841,0.8305177881073945,0.08345000000000001,0.0014721141260106145,675.9668917208166,1.1747132747449438
332,300L_GN_2.0_6.0_25_225_trail_2/GS_33.129_GN_82_L_300_Trail_2_orig.png,2,300,33.12945782245396,82,3.87434325870207,0.21011982962390466,47.23593656205276,0.699314202997168,0.073218,0.0011896789482881483,682.7222682732777,1.1776191031233854
333,300L_GN_2.0_6.0_25_225_trail_2/GS_33.129_GN_82_L_300_Trail_2_mirror.png,2,300,33.12945782245396,82,3.87434325870207,0.21011982962390466,47.23593656205276,0.699314202997168,0.073218,0.0011896789482881483,682.7222682732777,1.1776191031233854
334,300L_GN_2.0_6.0_25_225_trail_2/GS_33.129_GN_82_L_300_Trail_2_flip.png,2,300,33.12945782245396,82,3.87434325870207,0.21011982962390466,47.23593656205276,0.699314202997168,0.073218,0.0011896789482881483,682.7222682732777,1.1776191031233854
335,300L_GN_2.0_6.0_25_225_trail_2/GS_33.129_GN_82_L_300_Trail_2_mirror_flip.png,2,300,33.12945782245396,82,3.87434325870207,0.21011982962390466,47.23593656205276,0.699314202997168,0.073218,0.0011896789482881483,682.7222682732777,1.1776191031233854
336,300L_GN_2.0_6.0_25_225_trail_2/GS_32.163_GN_87_L_300_Trail_2_orig.png,2,300,32.163376045133845,87,3.5823949017050887,0.2311203633797266,47.76822334380562,0.6206263154548785,0.07405,0.0014785127662621023,671.8876027787488,1.0316514776633152
337,300L_GN_2.0_6.0_25_225_trail_2/GS_32.163_GN_87_L_300_Trail_2_mirror.png,2,300,32.163376045133845,87,3.5823949017050887,0.2311203633797266,47.76822334380562,0.6206263154548785,0.07405,0.0014785127662621023,671.8876027787488,1.0316514776633152
338,300L_GN_2.0_6.0_25_225_trail_2/GS_32.163_GN_87_L_300_Trail_2_flip.png,2,300,32.163376045133845,87,3.5823949017050887,0.2311203633797266,47.76822334380562,0.6206263154548785,0.07405,0.0014785127662621023,671.8876027787488,1.0316514776633152
339,300L_GN_2.0_6.0_25_225_trail_2/GS_32.163_GN_87_L_300_Trail_2_mirror_flip.png,2,300,32.163376045133845,87,3.5823949017050887,0.2311203633797266,47.76822334380562,0.6206263154548785,0.07405,0.0014785127662621023,671.8876027787488,1.0316514776633152
340,300L_GN_2.0_6.0_25_225_trail_2/GS_31.449_GN_91_L_300_Trail_2_orig.png,2,300,31.44854510165755,91,3.803617973043616,0.6425005156271906,50.071336709891426,0.8968852218573267,0.08141800000000002,0.0017004517046949645,653.7926315570842,1.4434442490929866
341,300L_GN_2.0_6.0_25_225_trail_2/GS_31.449_GN_91_L_300_Trail_2_mirror.png,2,300,31.44854510165755,91,3.803617973043616,0.6425005156271906,50.071336709891426,0.8968852218573267,0.08141800000000002,0.0017004517046949645,653.7926315570842,1.4434442490929866
342,300L_GN_2.0_6.0_25_225_trail_2/GS_31.449_GN_91_L_300_Trail_2_flip.png,2,300,31.44854510165755,91,3.803617973043616,0.6425005156271906,50.071336709891426,0.8968852218573267,0.08141800000000002,0.0017004517046949645,653.7926315570842,1.4434442490929866
343,300L_GN_2.0_6.0_25_225_trail_2/GS_31.449_GN_91_L_300_Trail_2_mirror_flip.png,2,300,31.44854510165755,91,3.803617973043616,0.6425005156271906,50.071336709891426,0.8968852218573267,0.08141800000000002,0.0017004517046949645,653.7926315570842,1.4434442490929866
344,300L_GN_2.0_6.0_25_225_trail_2/GS_30.779_GN_95_L_300_Trail_2_orig.png,2,300,30.779350562554626,95,3.7508649551347437,0.06925424554513795,52.52618127708515,0.5893607345493381,0.084764,0.0009254750131689142,656.1101491359065,0.9741286248563777
345,300L_GN_2.0_6.0_25_225_trail_2/GS_30.779_GN_95_L_300_Trail_2_mirror.png,2,300,30.779350562554626,95,3.7508649551347437,0.06925424554513795,52.52618127708515,0.5893607345493381,0.084764,0.0009254750131689142,656.1101491359065,0.9741286248563777
346,300L_GN_2.0_6.0_25_225_trail_2/GS_30.779_GN_95_L_300_Trail_2_flip.png,2,300,30.779350562554626,95,3.7508649551347437,0.06925424554513795,52.52618127708515,0.5893607345493381,0.084764,0.0009254750131689142,656.1101491359065,0.9741286248563777
347,300L_GN_2.0_6.0_25_225_trail_2/GS_30.779_GN_95_L_300_Trail_2_mirror_flip.png,2,300,30.779350562554626,95,3.7508649551347437,0.06925424554513795,52.52618127708515,0.5893607345493381,0.084764,0.0009254750131689142,656.1101491359065,0.9741286248563777
348,300L_GN_2.0_6.0_25_225_trail_2/GS_30.0_GN_100_L_300_Trail_2_orig.png,2,300,30.0,100,3.879864247754038,0.9858482822993738,44.93285461678661,1.205040928108053,0.072018,0.0019908530834795452,653.7096076977712,0.9309491200897021
349,300L_GN_2.0_6.0_25_225_trail_2/GS_30.0_GN_100_L_300_Trail_2_mirror.png,2,300,30.0,100,3.879864247754038,0.9858482822993738,44.93285461678661,1.205040928108053,0.072018,0.0019908530834795452,653.7096076977712,0.9309491200897021
350,300L_GN_2.0_6.0_25_225_trail_2/GS_30.0_GN_100_L_300_Trail_2_flip.png,2,300,30.0,100,3.879864247754038,0.9858482822993738,44.93285461678661,1.205040928108053,0.072018,0.0019908530834795452,653.7096076977712,0.9309491200897021
351,300L_GN_2.0_6.0_25_225_trail_2/GS_30.0_GN_100_L_300_Trail_2_mirror_flip.png,2,300,30.0,100,3.879864247754038,0.9858482822993738,44.93285461678661,1.205040928108053,0.072018,0.0019908530834795452,653.7096076977712,0.9309491200897021
352,300L_GN_2.0_6.0_25_225_trail_2/GS_29.139_GN_106_L_300_Trail_2_orig.png,2,300,29.138575870717926,106,4.430298224714879,0.5797177683448429,52.77068449245171,1.2341750987697107,0.08552400000000002,0.0023324630758063455,656.4972434909716,1.419481779468574
353,300L_GN_2.0_6.0_25_225_trail_2/GS_29.139_GN_106_L_300_Trail_2_mirror.png,2,300,29.138575870717926,106,4.430298224714879,0.5797177683448429,52.77068449245171,1.2341750987697107,0.08552400000000002,0.0023324630758063455,656.4972434909716,1.419481779468574
354,300L_GN_2.0_6.0_25_225_trail_2/GS_29.139_GN_106_L_300_Trail_2_flip.png,2,300,29.138575870717926,106,4.430298224714879,0.5797177683448429,52.77068449245171,1.2341750987697107,0.08552400000000002,0.0023324630758063455,656.4972434909716,1.419481779468574
355,300L_GN_2.0_6.0_25_225_trail_2/GS_29.139_GN_106_L_300_Trail_2_mirror_flip.png,2,300,29.138575870717926,106,4.430298224714879,0.5797177683448429,52.77068449245171,1.2341750987697107,0.08552400000000002,0.0023324630758063455,656.4972434909716,1.419481779468574
356,300L_GN_2.0_6.0_25_225_trail_2/GS_28.347_GN_112_L_300_Trail_2_orig.png,2,300,28.34733547569204,112,3.7940115734698345,0.2666034876193536,50.12577236725375,1.13320634382111,0.07926600000000002,0.0017168412856172822,663.9231345565803,1.2632719166635218
357,300L_GN_2.0_6.0_25_225_trail_2/GS_28.347_GN_112_L_300_Trail_2_mirror.png,2,300,28.34733547569204,112,3.7940115734698345,0.2666034876193536,50.12577236725375,1.13320634382111,0.07926600000000002,0.0017168412856172822,663.9231345565803,1.2632719166635218
358,300L_GN_2.0_6.0_25_225_trail_2/GS_28.347_GN_112_L_300_Trail_2_flip.png,2,300,28.34733547569204,112,3.7940115734698345,0.2666034876193536,50.12577236725375,1.13320634382111,0.07926600000000002,0.0017168412856172822,663.9231345565803,1.2632719166635218
359,300L_GN_2.0_6.0_25_225_trail_2/GS_28.347_GN_112_L_300_Trail_2_mirror_flip.png,2,300,28.34733547569204,112,3.7940115734698345,0.2666034876193536,50.12577236725375,1.13320634382111,0.07926600000000002,0.0017168412856172822,663.9231345565803,1.2632719166635218
360,300L_GN_2.0_6.0_25_225_trail_2/GS_27.501_GN_119_L_300_Trail_2_orig.png,2,300,27.50095491084634,119,3.875180307594602,0.5426847357332479,52.00585343169722,0.9270292675932725,0.082082,0.0015533885540971362,661.1137371043875,2.205972161627847
361,300L_GN_2.0_6.0_25_225_trail_2/GS_27.501_GN_119_L_300_Trail_2_mirror.png,2,300,27.50095491084634,119,3.875180307594602,0.5426847357332479,52.00585343169722,0.9270292675932725,0.082082,0.0015533885540971362,661.1137371043875,2.205972161627847
362,300L_GN_2.0_6.0_25_225_trail_2/GS_27.501_GN_119_L_300_Trail_2_flip.png,2,300,27.50095491084634,119,3.875180307594602,0.5426847357332479,52.00585343169722,0.9270292675932725,0.082082,0.0015533885540971362,661.1137371043875,2.205972161627847
363,300L_GN_2.0_6.0_25_225_trail_2/GS_27.501_GN_119_L_300_Trail_2_mirror_flip.png,2,300,27.50095491084634,119,3.875180307594602,0.5426847357332479,52.00585343169722,0.9270292675932725,0.082082,0.0015533885540971362,661.1137371043875,2.205972161627847
364,300L_GN_2.0_6.0_25_225_trail_2/GS_26.726_GN_126_L_300_Trail_2_orig.png,2,300,26.726124191242437,126,2.7141653329485647,0.49606241616989877,45.955829100040496,0.7285223640826172,0.072938,0.0012950274128372742,652.2230403273334,1.1034458987077136
365,300L_GN_2.0_6.0_25_225_trail_2/GS_26.726_GN_126_L_300_Trail_2_mirror.png,2,300,26.726124191242437,126,2.7141653329485647,0.49606241616989877,45.955829100040496,0.7285223640826172,0.072938,0.0012950274128372742,652.2230403273334,1.1034458987077136
366,300L_GN_2.0_6.0_25_225_trail_2/GS_26.726_GN_126_L_300_Trail_2_flip.png,2,300,26.726124191242437,126,2.7141653329485647,0.49606241616989877,45.955829100040496,0.7285223640826172,0.072938,0.0012950274128372742,652.2230403273334,1.1034458987077136
367,300L_GN_2.0_6.0_25_225_trail_2/GS_26.726_GN_126_L_300_Trail_2_mirror_flip.png,2,300,26.726124191242437,126,2.7141653329485647,0.49606241616989877,45.955829100040496,0.7285223640826172,0.072938,0.0012950274128372742,652.2230403273334,1.1034458987077136
368,300L_GN_2.0_6.0_25_225_trail_2/GS_26.112_GN_132_L_300_Trail_2_orig.png,2,300,26.111648393354677,132,3.6034905102748995,0.2656531453405232,47.152559528238825,1.14710008230577,0.076654,0.002104781223785502,661.2754391128567,1.632418139301257
369,300L_GN_2.0_6.0_25_225_trail_2/GS_26.112_GN_132_L_300_Trail_2_mirror.png,2,300,26.111648393354677,132,3.6034905102748995,0.2656531453405232,47.152559528238825,1.14710008230577,0.076654,0.002104781223785502,661.2754391128567,1.632418139301257
370,300L_GN_2.0_6.0_25_225_trail_2/GS_26.112_GN_132_L_300_Trail_2_flip.png,2,300,26.111648393354677,132,3.6034905102748995,0.2656531453405232,47.152559528238825,1.14710008230577,0.076654,0.002104781223785502,661.2754391128567,1.632418139301257
371,300L_GN_2.0_6.0_25_225_trail_2/GS_26.112_GN_132_L_300_Trail_2_mirror_flip.png,2,300,26.111648393354677,132,3.6034905102748995,0.2656531453405232,47.152559528238825,1.14710008230577,0.076654,0.002104781223785502,661.2754391128567,1.632418139301257
372,300L_GN_2.0_6.0_25_225_trail_2/GS_25.0_GN_144_L_300_Trail_2_orig.png,2,300,25.0,144,3.7983010557066605,0.5961473543558657,49.49200998852045,1.2313378184658756,0.0796,0.0019922750814081883,648.3389320300207,1.747787710212723
373,300L_GN_2.0_6.0_25_225_trail_2/GS_25.0_GN_144_L_300_Trail_2_mirror.png,2,300,25.0,144,3.7983010557066605,0.5961473543558657,49.49200998852045,1.2313378184658756,0.0796,0.0019922750814081883,648.3389320300207,1.747787710212723
374,300L_GN_2.0_6.0_25_225_trail_2/GS_25.0_GN_144_L_300_Trail_2_flip.png,2,300,25.0,144,3.7983010557066605,0.5961473543558657,49.49200998852045,1.2313378184658756,0.0796,0.0019922750814081883,648.3389320300207,1.747787710212723
375,300L_GN_2.0_6.0_25_225_trail_2/GS_25.0_GN_144_L_300_Trail_2_mirror_flip.png,2,300,25.0,144,3.7983010557066605,0.5961473543558657,49.49200998852045,1.2313378184658756,0.0796,0.0019922750814081883,648.3389320300207,1.747787710212723
376,300L_GN_2.0_6.0_25_225_trail_2/GS_24.333_GN_152_L_300_Trail_2_orig.png,2,300,24.333213169614382,152,4.2094313001326125,0.41152176003864066,51.560491367193414,0.6879190065423684,0.083834,0.001582562479019393,657.9970231083405,0.8188010462759353
377,300L_GN_2.0_6.0_25_225_trail_2/GS_24.333_GN_152_L_300_Trail_2_mirror.png,2,300,24.333213169614382,152,4.2094313001326125,0.41152176003864066,51.560491367193414,0.6879190065423684,0.083834,0.001582562479019393,657.9970231083405,0.8188010462759353
378,300L_GN_2.0_6.0_25_225_trail_2/GS_24.333_GN_152_L_300_Trail_2_flip.png,2,300,24.333213169614382,152,4.2094313001326125,0.41152176003864066,51.560491367193414,0.6879190065423684,0.083834,0.001582562479019393,657.9970231083405,0.8188010462759353
379,300L_GN_2.0_6.0_25_225_trail_2/GS_24.333_GN_152_L_300_Trail_2_mirror_flip.png,2,300,24.333213169614382,152,4.2094313001326125,0.41152176003864066,51.560491367193414,0.6879190065423684,0.083834,0.001582562479019393,657.9970231083405,0.8188010462759353
380,300L_GN_2.0_6.0_25_225_trail_2/GS_23.717_GN_160_L_300_Trail_2_orig.png,2,300,23.717082451262844,160,4.805526437674671,0.39247236885781533,48.125933480681276,0.7755175554811534,0.07829749999999999,0.0012177104540899689,647.7320928408132,0.9157182549815023
381,300L_GN_2.0_6.0_25_225_trail_2/GS_23.717_GN_160_L_300_Trail_2_mirror.png,2,300,23.717082451262844,160,4.805526437674671,0.39247236885781533,48.125933480681276,0.7755175554811534,0.07829749999999999,0.0012177104540899689,647.7320928408132,0.9157182549815023
382,300L_GN_2.0_6.0_25_225_trail_2/GS_23.717_GN_160_L_300_Trail_2_flip.png,2,300,23.717082451262844,160,4.805526437674671,0.39247236885781533,48.125933480681276,0.7755175554811534,0.07829749999999999,0.0012177104540899689,647.7320928408132,0.9157182549815023
383,300L_GN_2.0_6.0_25_225_trail_2/GS_23.717_GN_160_L_300_Trail_2_mirror_flip.png,2,300,23.717082451262844,160,4.805526437674671,0.39247236885781533,48.125933480681276,0.7755175554811534,0.07829749999999999,0.0012177104540899689,647.7320928408132,0.9157182549815023
384,300L_GN_2.0_6.0_25_225_trail_2/GS_23.146_GN_168_L_300_Trail_2_orig.png,2,300,23.145502494313785,168,4.343257912307303,0.5324205615231957,51.24699350438209,0.4099560935028434,0.085168,0.0007009536361272403,635.0116745560895,1.2906405361610176
385,300L_GN_2.0_6.0_25_225_trail_2/GS_23.146_GN_168_L_300_Trail_2_mirror.png,2,300,23.145502494313785,168,4.343257912307303,0.5324205615231957,51.24699350438209,0.4099560935028434,0.085168,0.0007009536361272403,635.0116745560895,1.2906405361610176
386,300L_GN_2.0_6.0_25_225_trail_2/GS_23.146_GN_168_L_300_Trail_2_flip.png,2,300,23.145502494313785,168,4.343257912307303,0.5324205615231957,51.24699350438209,0.4099560935028434,0.085168,0.0007009536361272403,635.0116745560895,1.2906405361610176
387,300L_GN_2.0_6.0_25_225_trail_2/GS_23.146_GN_168_L_300_Trail_2_mirror_flip.png,2,300,23.145502494313785,168,4.343257912307303,0.5324205615231957,51.24699350438209,0.4099560935028434,0.085168,0.0007009536361272403,635.0116745560895,1.2906405361610176
388,300L_GN_2.0_6.0_25_225_trail_2/GS_22.486_GN_178_L_300_Trail_2_orig.png,2,300,22.48595066987584,178,3.766682908084435,0.34621811760100996,45.12180603870505,0.7853068176778814,0.072494,0.0012818361829812753,651.607489275166,1.827005668544695
389,300L_GN_2.0_6.0_25_225_trail_2/GS_22.486_GN_178_L_300_Trail_2_mirror.png,2,300,22.48595066987584,178,3.766682908084435,0.34621811760100996,45.12180603870505,0.7853068176778814,0.072494,0.0012818361829812753,651.607489275166,1.827005668544695
390,300L_GN_2.0_6.0_25_225_trail_2/GS_22.486_GN_178_L_300_Trail_2_flip.png,2,300,22.48595066987584,178,3.766682908084435,0.34621811760100996,45.12180603870505,0.7853068176778814,0.072494,0.0012818361829812753,651.607489275166,1.827005668544695
391,300L_GN_2.0_6.0_25_225_trail_2/GS_22.486_GN_178_L_300_Trail_2_mirror_flip.png,2,300,22.48595066987584,178,3.766682908084435,0.34621811760100996,45.12180603870505,0.7853068176778814,0.072494,0.0012818361829812753,651.607489275166,1.827005668544695
392,300L_GN_2.0_6.0_25_225_trail_2/GS_21.213_GN_200_L_300_Trail_2_orig.png,2,300,21.213203435596427,200,3.517016261307377,0.197069126254668,50.75765374295425,0.5787565957269125,0.083044,0.0008653230610586994,641.5452584764244,1.5205962153743349
393,300L_GN_2.0_6.0_25_225_trail_2/GS_21.213_GN_200_L_300_Trail_2_mirror.png,2,300,21.213203435596427,200,3.517016261307377,0.197069126254668,50.75765374295425,0.5787565957269125,0.083044,0.0008653230610586994,641.5452584764244,1.5205962153743349
394,300L_GN_2.0_6.0_25_225_trail_2/GS_21.213_GN_200_L_300_Trail_2_flip.png,2,300,21.213203435596427,200,3.517016261307377,0.197069126254668,50.75765374295425,0.5787565957269125,0.083044,0.0008653230610586994,641.5452584764244,1.5205962153743349
395,300L_GN_2.0_6.0_25_225_trail_2/GS_21.213_GN_200_L_300_Trail_2_mirror_flip.png,2,300,21.213203435596427,200,3.517016261307377,0.197069126254668,50.75765374295425,0.5787565957269125,0.083044,0.0008653230610586994,641.5452584764244,1.5205962153743349
396,300L_GN_2.0_6.0_25_225_trail_2/GS_20.0_GN_225_L_300_Trail_2_orig.png,2,300,20.0,225,5.101209295785388,0.2713528680254441,47.51187377924798,1.0864299026652413,0.08031600000000001,0.0017753039176434003,621.5034944922484,1.9213958803970737
397,300L_GN_2.0_6.0_25_225_trail_2/GS_20.0_GN_225_L_300_Trail_2_mirror.png,2,300,20.0,225,5.101209295785388,0.2713528680254441,47.51187377924798,1.0864299026652413,0.08031600000000001,0.0017753039176434003,621.5034944922484,1.9213958803970737
398,300L_GN_2.0_6.0_25_225_trail_2/GS_20.0_GN_225_L_300_Trail_2_flip.png,2,300,20.0,225,5.101209295785388,0.2713528680254441,47.51187377924798,1.0864299026652413,0.08031600000000001,0.0017753039176434003,621.5034944922484,1.9213958803970737
399,300L_GN_2.0_6.0_25_225_trail_2/GS_20.0_GN_225_L_300_Trail_2_mirror_flip.png,2,300,20.0,225,5.101209295785388,0.2713528680254441,47.51187377924798,1.0864299026652413,0.08031600000000001,0.0017753039176434003,621.5034944922484,1.9213958803970737
400,300L_GN_2.0_6.0_25_225_trail_3/GS_60.0_GN_25_L_300_Trail_3_orig.png,3,300,60.0,25,4.47319166338769,0.5142422928310554,56.96197187962249,1.650660808099713,0.0879325,0.0036241990494452724,707.1527793801939,4.331491991459457
401,300L_GN_2.0_6.0_25_225_trail_3/GS_60.0_GN_25_L_300_Trail_3_mirror.png,3,300,60.0,25,4.47319166338769,0.5142422928310554,56.96197187962249,1.650660808099713,0.0879325,0.0036241990494452724,707.1527793801939,4.331491991459457
402,300L_GN_2.0_6.0_25_225_trail_3/GS_60.0_GN_25_L_300_Trail_3_flip.png,3,300,60.0,25,4.47319166338769,0.5142422928310554,56.96197187962249,1.650660808099713,0.0879325,0.0036241990494452724,707.1527793801939,4.331491991459457
403,300L_GN_2.0_6.0_25_225_trail_3/GS_60.0_GN_25_L_300_Trail_3_mirror_flip.png,3,300,60.0,25,4.47319166338769,0.5142422928310554,56.96197187962249,1.650660808099713,0.0879325,0.0036241990494452724,707.1527793801939,4.331491991459457
404,300L_GN_2.0_6.0_25_225_trail_3/GS_58.835_GN_26_L_300_Trail_3_orig.png,3,300,58.834840541455215,26,3.9369371620231544,0.793393708305921,52.40231973932994,0.8152764796590113,0.07543,0.0035041974830194696,741.9584287099048,15.844697932588861
405,300L_GN_2.0_6.0_25_225_trail_3/GS_58.835_GN_26_L_300_Trail_3_mirror.png,3,300,58.834840541455215,26,3.9369371620231544,0.793393708305921,52.40231973932994,0.8152764796590113,0.07543,0.0035041974830194696,741.9584287099048,15.844697932588861
406,300L_GN_2.0_6.0_25_225_trail_3/GS_58.835_GN_26_L_300_Trail_3_flip.png,3,300,58.834840541455215,26,3.9369371620231544,0.793393708305921,52.40231973932994,0.8152764796590113,0.07543,0.0035041974830194696,741.9584287099048,15.844697932588861
407,300L_GN_2.0_6.0_25_225_trail_3/GS_58.835_GN_26_L_300_Trail_3_mirror_flip.png,3,300,58.834840541455215,26,3.9369371620231544,0.793393708305921,52.40231973932994,0.8152764796590113,0.07543,0.0035041974830194696,741.9584287099048,15.844697932588861
408,300L_GN_2.0_6.0_25_225_trail_3/GS_57.735_GN_27_L_300_Trail_3_orig.png,3,300,57.735026918962575,27,4.198367899381311,0.588588152067956,52.374975398151705,0.5141840439814714,0.07858000000000001,0.0016989261314136071,714.1718996366048,4.1463826112624105
409,300L_GN_2.0_6.0_25_225_trail_3/GS_57.735_GN_27_L_300_Trail_3_mirror.png,3,300,57.735026918962575,27,4.198367899381311,0.588588152067956,52.374975398151705,0.5141840439814714,0.07858000000000001,0.0016989261314136071,714.1718996366048,4.1463826112624105
410,300L_GN_2.0_6.0_25_225_trail_3/GS_57.735_GN_27_L_300_Trail_3_flip.png,3,300,57.735026918962575,27,4.198367899381311,0.588588152067956,52.374975398151705,0.5141840439814714,0.07858000000000001,0.0016989261314136071,714.1718996366048,4.1463826112624105
411,300L_GN_2.0_6.0_25_225_trail_3/GS_57.735_GN_27_L_300_Trail_3_mirror_flip.png,3,300,57.735026918962575,27,4.198367899381311,0.588588152067956,52.374975398151705,0.5141840439814714,0.07858000000000001,0.0016989261314136071,714.1718996366048,4.1463826112624105
412,300L_GN_2.0_6.0_25_225_trail_3/GS_56.695_GN_28_L_300_Trail_3_orig.png,3,300,56.69467095138408,28,3.544298782277294,0.48049205870287787,51.80561954755641,0.8979028396159573,0.07765999999999999,0.0007162401831787971,719.4614343688762,4.125290738872689
413,300L_GN_2.0_6.0_25_225_trail_3/GS_56.695_GN_28_L_300_Trail_3_mirror.png,3,300,56.69467095138408,28,3.544298782277294,0.48049205870287787,51.80561954755641,0.8979028396159573,0.07765999999999999,0.0007162401831787971,719.4614343688762,4.125290738872689
414,300L_GN_2.0_6.0_25_225_trail_3/GS_56.695_GN_28_L_300_Trail_3_flip.png,3,300,56.69467095138408,28,3.544298782277294,0.48049205870287787,51.80561954755641,0.8979028396159573,0.07765999999999999,0.0007162401831787971,719.4614343688762,4.125290738872689
415,300L_GN_2.0_6.0_25_225_trail_3/GS_56.695_GN_28_L_300_Trail_3_mirror_flip.png,3,300,56.69467095138408,28,3.544298782277294,0.48049205870287787,51.80561954755641,0.8979028396159573,0.07765999999999999,0.0007162401831787971,719.4614343688762,4.125290738872689
416,300L_GN_2.0_6.0_25_225_trail_3/GS_55.709_GN_29_L_300_Trail_3_orig.png,3,300,55.70860145311556,29,3.831266428673032,0.10670711690431774,52.74301322941206,0.7831225769080609,0.07903500000000001,0.002703160187632252,718.198394278159,6.371049623512913
417,300L_GN_2.0_6.0_25_225_trail_3/GS_55.709_GN_29_L_300_Trail_3_mirror.png,3,300,55.70860145311556,29,3.831266428673032,0.10670711690431774,52.74301322941206,0.7831225769080609,0.07903500000000001,0.002703160187632252,718.198394278159,6.371049623512913
418,300L_GN_2.0_6.0_25_225_trail_3/GS_55.709_GN_29_L_300_Trail_3_flip.png,3,300,55.70860145311556,29,3.831266428673032,0.10670711690431774,52.74301322941206,0.7831225769080609,0.07903500000000001,0.002703160187632252,718.198394278159,6.371049623512913
419,300L_GN_2.0_6.0_25_225_trail_3/GS_55.709_GN_29_L_300_Trail_3_mirror_flip.png,3,300,55.70860145311556,29,3.831266428673032,0.10670711690431774,52.74301322941206,0.7831225769080609,0.07903500000000001,0.002703160187632252,718.198394278159,6.371049623512913
420,300L_GN_2.0_6.0_25_225_trail_3/GS_54.772_GN_30_L_300_Trail_3_orig.png,3,300,54.772255750516614,30,5.456883846035046,0.8486909383708966,52.89636248847133,0.9209750092585407,0.07998000000000001,0.001602073656234318,713.4992436843849,2.7522027262402715
421,300L_GN_2.0_6.0_25_225_trail_3/GS_54.772_GN_30_L_300_Trail_3_mirror.png,3,300,54.772255750516614,30,5.456883846035046,0.8486909383708966,52.89636248847133,0.9209750092585407,0.07998000000000001,0.001602073656234318,713.4992436843849,2.7522027262402715
422,300L_GN_2.0_6.0_25_225_trail_3/GS_54.772_GN_30_L_300_Trail_3_flip.png,3,300,54.772255750516614,30,5.456883846035046,0.8486909383708966,52.89636248847133,0.9209750092585407,0.07998000000000001,0.001602073656234318,713.4992436843849,2.7522027262402715
423,300L_GN_2.0_6.0_25_225_trail_3/GS_54.772_GN_30_L_300_Trail_3_mirror_flip.png,3,300,54.772255750516614,30,5.456883846035046,0.8486909383708966,52.89636248847133,0.9209750092585407,0.07998000000000001,0.001602073656234318,713.4992436843849,2.7522027262402715
424,300L_GN_2.0_6.0_25_225_trail_3/GS_53.882_GN_31_L_300_Trail_3_orig.png,3,300,53.881590608032475,31,3.8783575485551056,0.19069500525866484,55.07625120480683,3.2237410858392597,0.08218800000000001,0.005365576949406281,721.8594247363583,4.7410018052214715
425,300L_GN_2.0_6.0_25_225_trail_3/GS_53.882_GN_31_L_300_Trail_3_mirror.png,3,300,53.881590608032475,31,3.8783575485551056,0.19069500525866484,55.07625120480683,3.2237410858392597,0.08218800000000001,0.005365576949406281,721.8594247363583,4.7410018052214715
426,300L_GN_2.0_6.0_25_225_trail_3/GS_53.882_GN_31_L_300_Trail_3_flip.png,3,300,53.881590608032475,31,3.8783575485551056,0.19069500525866484,55.07625120480683,3.2237410858392597,0.08218800000000001,0.005365576949406281,721.8594247363583,4.7410018052214715
427,300L_GN_2.0_6.0_25_225_trail_3/GS_53.882_GN_31_L_300_Trail_3_mirror_flip.png,3,300,53.881590608032475,31,3.8783575485551056,0.19069500525866484,55.07625120480683,3.2237410858392597,0.08218800000000001,0.005365576949406281,721.8594247363583,4.7410018052214715
428,300L_GN_2.0_6.0_25_225_trail_3/GS_53.033_GN_32_L_300_Trail_3_orig.png,3,300,53.03300858899106,32,4.584010203531985,0.356215224877957,55.38435369116869,0.9761214585972426,0.08449400000000001,0.0022276229483465084,719.8685381195005,7.604862372395676
429,300L_GN_2.0_6.0_25_225_trail_3/GS_53.033_GN_32_L_300_Trail_3_mirror.png,3,300,53.03300858899106,32,4.584010203531985,0.356215224877957,55.38435369116869,0.9761214585972426,0.08449400000000001,0.0022276229483465084,719.8685381195005,7.604862372395676
430,300L_GN_2.0_6.0_25_225_trail_3/GS_53.033_GN_32_L_300_Trail_3_flip.png,3,300,53.03300858899106,32,4.584010203531985,0.356215224877957,55.38435369116869,0.9761214585972426,0.08449400000000001,0.0022276229483465084,719.8685381195005,7.604862372395676
431,300L_GN_2.0_6.0_25_225_trail_3/GS_53.033_GN_32_L_300_Trail_3_mirror_flip.png,3,300,53.03300858899106,32,4.584010203531985,0.356215224877957,55.38435369116869,0.9761214585972426,0.08449400000000001,0.0022276229483465084,719.8685381195005,7.604862372395676
432,300L_GN_2.0_6.0_25_225_trail_3/GS_52.223_GN_33_L_300_Trail_3_orig.png,3,300,52.223296786709355,33,3.2143898860436906,0.6966536896133585,53.85625579398934,1.249306306820244,0.07946,0.002501095759862063,716.722419409128,2.9004441084945647
433,300L_GN_2.0_6.0_25_225_trail_3/GS_52.223_GN_33_L_300_Trail_3_mirror.png,3,300,52.223296786709355,33,3.2143898860436906,0.6966536896133585,53.85625579398934,1.249306306820244,0.07946,0.002501095759862063,716.722419409128,2.9004441084945647
434,300L_GN_2.0_6.0_25_225_trail_3/GS_52.223_GN_33_L_300_Trail_3_flip.png,3,300,52.223296786709355,33,3.2143898860436906,0.6966536896133585,53.85625579398934,1.249306306820244,0.07946,0.002501095759862063,716.722419409128,2.9004441084945647
435,300L_GN_2.0_6.0_25_225_trail_3/GS_52.223_GN_33_L_300_Trail_3_mirror_flip.png,3,300,52.223296786709355,33,3.2143898860436906,0.6966536896133585,53.85625579398934,1.249306306820244,0.07946,0.002501095759862063,716.722419409128,2.9004441084945647
436,300L_GN_2.0_6.0_25_225_trail_3/GS_51.45_GN_34_L_300_Trail_3_orig.png,3,300,51.44957554275265,34,4.239332384522247,0.15906769480089125,54.26764197300238,0.8212423556624536,0.082366,0.002480480598593747,711.5123645698015,7.466121892466652
437,300L_GN_2.0_6.0_25_225_trail_3/GS_51.45_GN_34_L_300_Trail_3_mirror.png,3,300,51.44957554275265,34,4.239332384522247,0.15906769480089125,54.26764197300238,0.8212423556624536,0.082366,0.002480480598593747,711.5123645698015,7.466121892466652
438,300L_GN_2.0_6.0_25_225_trail_3/GS_51.45_GN_34_L_300_Trail_3_flip.png,3,300,51.44957554275265,34,4.239332384522247,0.15906769480089125,54.26764197300238,0.8212423556624536,0.082366,0.002480480598593747,711.5123645698015,7.466121892466652
439,300L_GN_2.0_6.0_25_225_trail_3/GS_51.45_GN_34_L_300_Trail_3_mirror_flip.png,3,300,51.44957554275265,34,4.239332384522247,0.15906769480089125,54.26764197300238,0.8212423556624536,0.082366,0.002480480598593747,711.5123645698015,7.466121892466652
440,300L_GN_2.0_6.0_25_225_trail_3/GS_50.709_GN_35_L_300_Trail_3_orig.png,3,300,50.709255283710995,35,3.1301163578524447,0.5489952030642745,54.65550282087723,1.1656842683188,0.08309200000000001,0.0016544775610445742,708.4210213721217,2.2696509029056866
441,300L_GN_2.0_6.0_25_225_trail_3/GS_50.709_GN_35_L_300_Trail_3_mirror.png,3,300,50.709255283710995,35,3.1301163578524447,0.5489952030642745,54.65550282087723,1.1656842683188,0.08309200000000001,0.0016544775610445742,708.4210213721217,2.2696509029056866
442,300L_GN_2.0_6.0_25_225_trail_3/GS_50.709_GN_35_L_300_Trail_3_flip.png,3,300,50.709255283710995,35,3.1301163578524447,0.5489952030642745,54.65550282087723,1.1656842683188,0.08309200000000001,0.0016544775610445742,708.4210213721217,2.2696509029056866
443,300L_GN_2.0_6.0_25_225_trail_3/GS_50.709_GN_35_L_300_Trail_3_mirror_flip.png,3,300,50.709255283710995,35,3.1301163578524447,0.5489952030642745,54.65550282087723,1.1656842683188,0.08309200000000001,0.0016544775610445742,708.4210213721217,2.2696509029056866
444,300L_GN_2.0_6.0_25_225_trail_3/GS_50.0_GN_36_L_300_Trail_3_orig.png,3,300,50.0,36,4.383521943364652,0.33393777020921844,52.870715629057386,0.6557229480597168,0.07974200000000001,0.0009320386258090394,708.2908965294062,2.6325307625886
445,300L_GN_2.0_6.0_25_225_trail_3/GS_50.0_GN_36_L_300_Trail_3_mirror.png,3,300,50.0,36,4.383521943364652,0.33393777020921844,52.870715629057386,0.6557229480597168,0.07974200000000001,0.0009320386258090394,708.2908965294062,2.6325307625886
446,300L_GN_2.0_6.0_25_225_trail_3/GS_50.0_GN_36_L_300_Trail_3_flip.png,3,300,50.0,36,4.383521943364652,0.33393777020921844,52.870715629057386,0.6557229480597168,0.07974200000000001,0.0009320386258090394,708.2908965294062,2.6325307625886
447,300L_GN_2.0_6.0_25_225_trail_3/GS_50.0_GN_36_L_300_Trail_3_mirror_flip.png,3,300,50.0,36,4.383521943364652,0.33393777020921844,52.870715629057386,0.6557229480597168,0.07974200000000001,0.0009320386258090394,708.2908965294062,2.6325307625886
448,300L_GN_2.0_6.0_25_225_trail_3/GS_49.32_GN_37_L_300_Trail_3_orig.png,3,300,49.31969619160719,37,4.2215120206276735,0.6588559364663145,53.97330327534629,4.63492743336167,0.08011400000000002,0.005769882494470754,720.6277904152088,7.729554893227792
449,300L_GN_2.0_6.0_25_225_trail_3/GS_49.32_GN_37_L_300_Trail_3_mirror.png,3,300,49.31969619160719,37,4.2215120206276735,0.6588559364663145,53.97330327534629,4.63492743336167,0.08011400000000002,0.005769882494470754,720.6277904152088,7.729554893227792
450,300L_GN_2.0_6.0_25_225_trail_3/GS_49.32_GN_37_L_300_Trail_3_flip.png,3,300,49.31969619160719,37,4.2215120206276735,0.6588559364663145,53.97330327534629,4.63492743336167,0.08011400000000002,0.005769882494470754,720.6277904152088,7.729554893227792
451,300L_GN_2.0_6.0_25_225_trail_3/GS_49.32_GN_37_L_300_Trail_3_mirror_flip.png,3,300,49.31969619160719,37,4.2215120206276735,0.6588559364663145,53.97330327534629,4.63492743336167,0.08011400000000002,0.005769882494470754,720.6277904152088,7.729554893227792
452,300L_GN_2.0_6.0_25_225_trail_3/GS_48.666_GN_38_L_300_Trail_3_orig.png,3,300,48.666426339228764,38,3.9080245132031566,0.32506835957136987,51.045551662151134,2.3759107428263198,0.078434,0.0031124883935526545,699.2842711838327,2.3455557224322723
453,300L_GN_2.0_6.0_25_225_trail_3/GS_48.666_GN_38_L_300_Trail_3_mirror.png,3,300,48.666426339228764,38,3.9080245132031566,0.32506835957136987,51.045551662151134,2.3759107428263198,0.078434,0.0031124883935526545,699.2842711838327,2.3455557224322723
454,300L_GN_2.0_6.0_25_225_trail_3/GS_48.666_GN_38_L_300_Trail_3_flip.png,3,300,48.666426339228764,38,3.9080245132031566,0.32506835957136987,51.045551662151134,2.3759107428263198,0.078434,0.0031124883935526545,699.2842711838327,2.3455557224322723
455,300L_GN_2.0_6.0_25_225_trail_3/GS_48.666_GN_38_L_300_Trail_3_mirror_flip.png,3,300,48.666426339228764,38,3.9080245132031566,0.32506835957136987,51.045551662151134,2.3759107428263198,0.078434,0.0031124883935526545,699.2842711838327,2.3455557224322723
456,300L_GN_2.0_6.0_25_225_trail_3/GS_48.038_GN_39_L_300_Trail_3_orig.png,3,300,48.03844614152614,39,4.535323952203936,0.2657554853457347,51.52886737513986,1.3464605695423637,0.078836,0.0031021515114513652,704.5242465996428,5.4478504675230015
457,300L_GN_2.0_6.0_25_225_trail_3/GS_48.038_GN_39_L_300_Trail_3_mirror.png,3,300,48.03844614152614,39,4.535323952203936,0.2657554853457347,51.52886737513986,1.3464605695423637,0.078836,0.0031021515114513652,704.5242465996428,5.4478504675230015
458,300L_GN_2.0_6.0_25_225_trail_3/GS_48.038_GN_39_L_300_Trail_3_flip.png,3,300,48.03844614152614,39,4.535323952203936,0.2657554853457347,51.52886737513986,1.3464605695423637,0.078836,0.0031021515114513652,704.5242465996428,5.4478504675230015
459,300L_GN_2.0_6.0_25_225_trail_3/GS_48.038_GN_39_L_300_Trail_3_mirror_flip.png,3,300,48.03844614152614,39,4.535323952203936,0.2657554853457347,51.52886737513986,1.3464605695423637,0.078836,0.0031021515114513652,704.5242465996428,5.4478504675230015
460,300L_GN_2.0_6.0_25_225_trail_3/GS_47.434_GN_40_L_300_Trail_3_orig.png,3,300,47.43416490252569,40,3.6434022722790944,0.12904079889930586,52.108601422578715,2.0647533348513853,0.079178,0.0023668831825842188,700.2620229821925,9.71147864291812
461,300L_GN_2.0_6.0_25_225_trail_3/GS_47.434_GN_40_L_300_Trail_3_mirror.png,3,300,47.43416490252569,40,3.6434022722790944,0.12904079889930586,52.108601422578715,2.0647533348513853,0.079178,0.0023668831825842188,700.2620229821925,9.71147864291812
462,300L_GN_2.0_6.0_25_225_trail_3/GS_47.434_GN_40_L_300_Trail_3_flip.png,3,300,47.43416490252569,40,3.6434022722790944,0.12904079889930586,52.108601422578715,2.0647533348513853,0.079178,0.0023668831825842188,700.2620229821925,9.71147864291812
463,300L_GN_2.0_6.0_25_225_trail_3/GS_47.434_GN_40_L_300_Trail_3_mirror_flip.png,3,300,47.43416490252569,40,3.6434022722790944,0.12904079889930586,52.108601422578715,2.0647533348513853,0.079178,0.0023668831825842188,700.2620229821925,9.71147864291812
464,300L_GN_2.0_6.0_25_225_trail_3/GS_46.852_GN_41_L_300_Trail_3_orig.png,3,300,46.85212856658182,41,3.4993567389600018,0.43138867523654995,54.024203015641866,0.43963136475779774,0.08215,0.0009857991681879261,708.1470536973357,5.444192472355445
465,300L_GN_2.0_6.0_25_225_trail_3/GS_46.852_GN_41_L_300_Trail_3_mirror.png,3,300,46.85212856658182,41,3.4993567389600018,0.43138867523654995,54.024203015641866,0.43963136475779774,0.08215,0.0009857991681879261,708.1470536973357,5.444192472355445
466,300L_GN_2.0_6.0_25_225_trail_3/GS_46.852_GN_41_L_300_Trail_3_flip.png,3,300,46.85212856658182,41,3.4993567389600018,0.43138867523654995,54.024203015641866,0.43963136475779774,0.08215,0.0009857991681879261,708.1470536973357,5.444192472355445
467,300L_GN_2.0_6.0_25_225_trail_3/GS_46.852_GN_41_L_300_Trail_3_mirror_flip.png,3,300,46.85212856658182,41,3.4993567389600018,0.43138867523654995,54.024203015641866,0.43963136475779774,0.08215,0.0009857991681879261,708.1470536973357,5.444192472355445
468,300L_GN_2.0_6.0_25_225_trail_3/GS_45.75_GN_43_L_300_Trail_3_orig.png,3,300,45.7495710997814,43,3.985152248224625,0.35813947839756466,51.54461228448828,0.6728977785974025,0.07775000000000001,0.0009481139172061538,714.0373970139318,2.7754182567615
469,300L_GN_2.0_6.0_25_225_trail_3/GS_45.75_GN_43_L_300_Trail_3_mirror.png,3,300,45.7495710997814,43,3.985152248224625,0.35813947839756466,51.54461228448828,0.6728977785974025,0.07775000000000001,0.0009481139172061538,714.0373970139318,2.7754182567615
470,300L_GN_2.0_6.0_25_225_trail_3/GS_45.75_GN_43_L_300_Trail_3_flip.png,3,300,45.7495710997814,43,3.985152248224625,0.35813947839756466,51.54461228448828,0.6728977785974025,0.07775000000000001,0.0009481139172061538,714.0373970139318,2.7754182567615
471,300L_GN_2.0_6.0_25_225_trail_3/GS_45.75_GN_43_L_300_Trail_3_mirror_flip.png,3,300,45.7495710997814,43,3.985152248224625,0.35813947839756466,51.54461228448828,0.6728977785974025,0.07775000000000001,0.0009481139172061538,714.0373970139318,2.7754182567615
472,300L_GN_2.0_6.0_25_225_trail_3/GS_45.227_GN_44_L_300_Trail_3_orig.png,3,300,45.22670168666454,44,3.1827542862447658,0.23608652531916668,55.246709049870375,1.316563553165138,0.08315750000000001,0.003238613708054726,706.7453151707216,6.489662688417262
473,300L_GN_2.0_6.0_25_225_trail_3/GS_45.227_GN_44_L_300_Trail_3_mirror.png,3,300,45.22670168666454,44,3.1827542862447658,0.23608652531916668,55.246709049870375,1.316563553165138,0.08315750000000001,0.003238613708054726,706.7453151707216,6.489662688417262
474,300L_GN_2.0_6.0_25_225_trail_3/GS_45.227_GN_44_L_300_Trail_3_flip.png,3,300,45.22670168666454,44,3.1827542862447658,0.23608652531916668,55.246709049870375,1.316563553165138,0.08315750000000001,0.003238613708054726,706.7453151707216,6.489662688417262
475,300L_GN_2.0_6.0_25_225_trail_3/GS_45.227_GN_44_L_300_Trail_3_mirror_flip.png,3,300,45.22670168666454,44,3.1827542862447658,0.23608652531916668,55.246709049870375,1.316563553165138,0.08315750000000001,0.003238613708054726,706.7453151707216,6.489662688417262
476,300L_GN_2.0_6.0_25_225_trail_3/GS_43.759_GN_47_L_300_Trail_3_orig.png,3,300,43.75949744936837,47,4.378587224243856,0.9585228853343253,52.513696149134844,0.9820496683260133,0.078962,0.0010528513665280588,701.8573501136959,2.739445586418724
477,300L_GN_2.0_6.0_25_225_trail_3/GS_43.759_GN_47_L_300_Trail_3_mirror.png,3,300,43.75949744936837,47,4.378587224243856,0.9585228853343253,52.513696149134844,0.9820496683260133,0.078962,0.0010528513665280588,701.8573501136959,2.739445586418724
478,300L_GN_2.0_6.0_25_225_trail_3/GS_43.759_GN_47_L_300_Trail_3_flip.png,3,300,43.75949744936837,47,4.378587224243856,0.9585228853343253,52.513696149134844,0.9820496683260133,0.078962,0.0010528513665280588,701.8573501136959,2.739445586418724
479,300L_GN_2.0_6.0_25_225_trail_3/GS_43.759_GN_47_L_300_Trail_3_mirror_flip.png,3,300,43.75949744936837,47,4.378587224243856,0.9585228853343253,52.513696149134844,0.9820496683260133,0.078962,0.0010528513665280588,701.8573501136959,2.739445586418724
480,300L_GN_2.0_6.0_25_225_trail_3/GS_43.301_GN_48_L_300_Trail_3_orig.png,3,300,43.30127018922194,48,3.8278885852233144,0.937446902754599,50.03345107048624,3.702854852705156,0.077894,0.006278014335759357,689.2333479194947,1.1678372000757133
481,300L_GN_2.0_6.0_25_225_trail_3/GS_43.301_GN_48_L_300_Trail_3_mirror.png,3,300,43.30127018922194,48,3.8278885852233144,0.937446902754599,50.03345107048624,3.702854852705156,0.077894,0.006278014335759357,689.2333479194947,1.1678372000757133
482,300L_GN_2.0_6.0_25_225_trail_3/GS_43.301_GN_48_L_300_Trail_3_flip.png,3,300,43.30127018922194,48,3.8278885852233144,0.937446902754599,50.03345107048624,3.702854852705156,0.077894,0.006278014335759357,689.2333479194947,1.1678372000757133
483,300L_GN_2.0_6.0_25_225_trail_3/GS_43.301_GN_48_L_300_Trail_3_mirror_flip.png,3,300,43.30127018922194,48,3.8278885852233144,0.937446902754599,50.03345107048624,3.702854852705156,0.077894,0.006278014335759357,689.2333479194947,1.1678372000757133
484,300L_GN_2.0_6.0_25_225_trail_3/GS_42.426_GN_50_L_300_Trail_3_orig.png,3,300,42.42640687119285,50,4.865576529910151,0.3259185879836266,50.15541275451129,2.3567502464637187,0.07784200000000001,0.003940590818646358,690.4822763130672,1.467341988234447
485,300L_GN_2.0_6.0_25_225_trail_3/GS_42.426_GN_50_L_300_Trail_3_mirror.png,3,300,42.42640687119285,50,4.865576529910151,0.3259185879836266,50.15541275451129,2.3567502464637187,0.07784200000000001,0.003940590818646358,690.4822763130672,1.467341988234447
486,300L_GN_2.0_6.0_25_225_trail_3/GS_42.426_GN_50_L_300_Trail_3_flip.png,3,300,42.42640687119285,50,4.865576529910151,0.3259185879836266,50.15541275451129,2.3567502464637187,0.07784200000000001,0.003940590818646358,690.4822763130672,1.467341988234447
487,300L_GN_2.0_6.0_25_225_trail_3/GS_42.426_GN_50_L_300_Trail_3_mirror_flip.png,3,300,42.42640687119285,50,4.865576529910151,0.3259185879836266,50.15541275451129,2.3567502464637187,0.07784200000000001,0.003940590818646358,690.4822763130672,1.467341988234447
488,300L_GN_2.0_6.0_25_225_trail_3/GS_41.603_GN_52_L_300_Trail_3_orig.png,3,300,41.60251471689219,52,4.043023424183471,0.21278569755027835,51.36460585413943,2.2204731228766303,0.079446,0.004381901870192891,690.5436658976239,1.4842303895298867
489,300L_GN_2.0_6.0_25_225_trail_3/GS_41.603_GN_52_L_300_Trail_3_mirror.png,3,300,41.60251471689219,52,4.043023424183471,0.21278569755027835,51.36460585413943,2.2204731228766303,0.079446,0.004381901870192891,690.5436658976239,1.4842303895298867
490,300L_GN_2.0_6.0_25_225_trail_3/GS_41.603_GN_52_L_300_Trail_3_flip.png,3,300,41.60251471689219,52,4.043023424183471,0.21278569755027835,51.36460585413943,2.2204731228766303,0.079446,0.004381901870192891,690.5436658976239,1.4842303895298867
491,300L_GN_2.0_6.0_25_225_trail_3/GS_41.603_GN_52_L_300_Trail_3_mirror_flip.png,3,300,41.60251471689219,52,4.043023424183471,0.21278569755027835,51.36460585413943,2.2204731228766303,0.079446,0.004381901870192891,690.5436658976239,1.4842303895298867
492,300L_GN_2.0_6.0_25_225_trail_3/GS_41.208_GN_53_L_300_Trail_3_orig.png,3,300,41.20816918460671,53,3.8648862597960956,0.6301931019195637,51.07117558504741,2.962187781734262,0.07845,0.005919334422044428,696.0375755605512,7.369117541775633
493,300L_GN_2.0_6.0_25_225_trail_3/GS_41.208_GN_53_L_300_Trail_3_mirror.png,3,300,41.20816918460671,53,3.8648862597960956,0.6301931019195637,51.07117558504741,2.962187781734262,0.07845,0.005919334422044428,696.0375755605512,7.369117541775633
494,300L_GN_2.0_6.0_25_225_trail_3/GS_41.208_GN_53_L_300_Trail_3_flip.png,3,300,41.20816918460671,53,3.8648862597960956,0.6301931019195637,51.07117558504741,2.962187781734262,0.07845,0.005919334422044428,696.0375755605512,7.369117541775633
495,300L_GN_2.0_6.0_25_225_trail_3/GS_41.208_GN_53_L_300_Trail_3_mirror_flip.png,3,300,41.20816918460671,53,3.8648862597960956,0.6301931019195637,51.07117558504741,2.962187781734262,0.07845,0.005919334422044428,696.0375755605512,7.369117541775633
496,300L_GN_2.0_6.0_25_225_trail_3/GS_40.089_GN_56_L_300_Trail_3_orig.png,3,300,40.08918628686366,56,3.4932693916835555,0.34566203463884976,52.36376304975322,1.533350031332134,0.08207400000000001,0.0017070161100587182,684.0726246012464,3.229600724708165
497,300L_GN_2.0_6.0_25_225_trail_3/GS_40.089_GN_56_L_300_Trail_3_mirror.png,3,300,40.08918628686366,56,3.4932693916835555,0.34566203463884976,52.36376304975322,1.533350031332134,0.08207400000000001,0.0017070161100587182,684.0726246012464,3.229600724708165
498,300L_GN_2.0_6.0_25_225_trail_3/GS_40.089_GN_56_L_300_Trail_3_flip.png,3,300,40.08918628686366,56,3.4932693916835555,0.34566203463884976,52.36376304975322,1.533350031332134,0.08207400000000001,0.0017070161100587182,684.0726246012464,3.229600724708165
499,300L_GN_2.0_6.0_25_225_trail_3/GS_40.089_GN_56_L_300_Trail_3_mirror_flip.png,3,300,40.08918628686366,56,3.4932693916835555,0.34566203463884976,52.36376304975322,1.533350031332134,0.08207400000000001,0.0017070161100587182,684.0726246012464,3.229600724708165
500,300L_GN_2.0_6.0_25_225_trail_3/GS_39.392_GN_58_L_300_Trail_3_orig.png,3,300,39.391929857916764,58,3.802736476476612,0.5435983972757623,51.06685846342053,0.45900693503939016,0.078168,0.0008314661748982913,699.1442939641396,3.2651489718772386
501,300L_GN_2.0_6.0_25_225_trail_3/GS_39.392_GN_58_L_300_Trail_3_mirror.png,3,300,39.391929857916764,58,3.802736476476612,0.5435983972757623,51.06685846342053,0.45900693503939016,0.078168,0.0008314661748982913,699.1442939641396,3.2651489718772386
502,300L_GN_2.0_6.0_25_225_trail_3/GS_39.392_GN_58_L_300_Trail_3_flip.png,3,300,39.391929857916764,58,3.802736476476612,0.5435983972757623,51.06685846342053,0.45900693503939016,0.078168,0.0008314661748982913,699.1442939641396,3.2651489718772386
503,300L_GN_2.0_6.0_25_225_trail_3/GS_39.392_GN_58_L_300_Trail_3_mirror_flip.png,3,300,39.391929857916764,58,3.802736476476612,0.5435983972757623,51.06685846342053,0.45900693503939016,0.078168,0.0008314661748982913,699.1442939641396,3.2651489718772386
504,300L_GN_2.0_6.0_25_225_trail_3/GS_38.73_GN_60_L_300_Trail_3_orig.png,3,300,38.72983346207417,60,3.699581341485741,0.6448281775142749,47.650982761786175,4.681630580990601,0.075226,0.007147773359585486,672.7798038525304,12.882972211888562
505,300L_GN_2.0_6.0_25_225_trail_3/GS_38.73_GN_60_L_300_Trail_3_mirror.png,3,300,38.72983346207417,60,3.699581341485741,0.6448281775142749,47.650982761786175,4.681630580990601,0.075226,0.007147773359585486,672.7798038525304,12.882972211888562
506,300L_GN_2.0_6.0_25_225_trail_3/GS_38.73_GN_60_L_300_Trail_3_flip.png,3,300,38.72983346207417,60,3.699581341485741,0.6448281775142749,47.650982761786175,4.681630580990601,0.075226,0.007147773359585486,672.7798038525304,12.882972211888562
507,300L_GN_2.0_6.0_25_225_trail_3/GS_38.73_GN_60_L_300_Trail_3_mirror_flip.png,3,300,38.72983346207417,60,3.699581341485741,0.6448281775142749,47.650982761786175,4.681630580990601,0.075226,0.007147773359585486,672.7798038525304,12.882972211888562
508,300L_GN_2.0_6.0_25_225_trail_3/GS_38.1_GN_62_L_300_Trail_3_orig.png,3,300,38.10003810005715,62,3.442773138745319,0.3144351998832091,51.690134923689506,1.3263859298217562,0.07898000000000001,0.002510975905897946,691.4011377103795,5.995125344797173
509,300L_GN_2.0_6.0_25_225_trail_3/GS_38.1_GN_62_L_300_Trail_3_mirror.png,3,300,38.10003810005715,62,3.442773138745319,0.3144351998832091,51.690134923689506,1.3263859298217562,0.07898000000000001,0.002510975905897946,691.4011377103795,5.995125344797173
510,300L_GN_2.0_6.0_25_225_trail_3/GS_38.1_GN_62_L_300_Trail_3_flip.png,3,300,38.10003810005715,62,3.442773138745319,0.3144351998832091,51.690134923689506,1.3263859298217562,0.07898000000000001,0.002510975905897946,691.4011377103795,5.995125344797173
511,300L_GN_2.0_6.0_25_225_trail_3/GS_38.1_GN_62_L_300_Trail_3_mirror_flip.png,3,300,38.10003810005715,62,3.442773138745319,0.3144351998832091,51.690134923689506,1.3263859298217562,0.07898000000000001,0.002510975905897946,691.4011377103795,5.995125344797173
512,300L_GN_2.0_6.0_25_225_trail_3/GS_37.5_GN_64_L_300_Trail_3_orig.png,3,300,37.5,64,4.183742584743589,0.4926775542652788,48.75443349444514,0.7539190392045744,0.076348,0.001240989927436965,678.5389129175891,1.9930313935126542
513,300L_GN_2.0_6.0_25_225_trail_3/GS_37.5_GN_64_L_300_Trail_3_mirror.png,3,300,37.5,64,4.183742584743589,0.4926775542652788,48.75443349444514,0.7539190392045744,0.076348,0.001240989927436965,678.5389129175891,1.9930313935126542
514,300L_GN_2.0_6.0_25_225_trail_3/GS_37.5_GN_64_L_300_Trail_3_flip.png,3,300,37.5,64,4.183742584743589,0.4926775542652788,48.75443349444514,0.7539190392045744,0.076348,0.001240989927436965,678.5389129175891,1.9930313935126542
515,300L_GN_2.0_6.0_25_225_trail_3/GS_37.5_GN_64_L_300_Trail_3_mirror_flip.png,3,300,37.5,64,4.183742584743589,0.4926775542652788,48.75443349444514,0.7539190392045744,0.076348,0.001240989927436965,678.5389129175891,1.9930313935126542
516,300L_GN_2.0_6.0_25_225_trail_3/GS_36.927_GN_66_L_300_Trail_3_orig.png,3,300,36.927447293799815,66,3.3561562673562255,0.4398335287886977,50.56978905680753,1.495001040188935,0.07908400000000002,0.0035670413510359013,679.0995881448547,5.432916127243866
517,300L_GN_2.0_6.0_25_225_trail_3/GS_36.927_GN_66_L_300_Trail_3_mirror.png,3,300,36.927447293799815,66,3.3561562673562255,0.4398335287886977,50.56978905680753,1.495001040188935,0.07908400000000002,0.0035670413510359013,679.0995881448547,5.432916127243866
518,300L_GN_2.0_6.0_25_225_trail_3/GS_36.927_GN_66_L_300_Trail_3_flip.png,3,300,36.927447293799815,66,3.3561562673562255,0.4398335287886977,50.56978905680753,1.495001040188935,0.07908400000000002,0.0035670413510359013,679.0995881448547,5.432916127243866
519,300L_GN_2.0_6.0_25_225_trail_3/GS_36.927_GN_66_L_300_Trail_3_mirror_flip.png,3,300,36.927447293799815,66,3.3561562673562255,0.4398335287886977,50.56978905680753,1.495001040188935,0.07908400000000002,0.0035670413510359013,679.0995881448547,5.432916127243866
520,300L_GN_2.0_6.0_25_225_trail_3/GS_36.116_GN_69_L_300_Trail_3_orig.png,3,300,36.11575592573076,69,3.8528660967451764,0.7442977758786645,48.577704700837565,2.019998045374774,0.075354,0.0026833754862113503,678.0291675472483,7.395222266932114
521,300L_GN_2.0_6.0_25_225_trail_3/GS_36.116_GN_69_L_300_Trail_3_mirror.png,3,300,36.11575592573076,69,3.8528660967451764,0.7442977758786645,48.577704700837565,2.019998045374774,0.075354,0.0026833754862113503,678.0291675472483,7.395222266932114
522,300L_GN_2.0_6.0_25_225_trail_3/GS_36.116_GN_69_L_300_Trail_3_flip.png,3,300,36.11575592573076,69,3.8528660967451764,0.7442977758786645,48.577704700837565,2.019998045374774,0.075354,0.0026833754862113503,678.0291675472483,7.395222266932114
523,300L_GN_2.0_6.0_25_225_trail_3/GS_36.116_GN_69_L_300_Trail_3_mirror_flip.png,3,300,36.11575592573076,69,3.8528660967451764,0.7442977758786645,48.577704700837565,2.019998045374774,0.075354,0.0026833754862113503,678.0291675472483,7.395222266932114
524,300L_GN_2.0_6.0_25_225_trail_3/GS_34.874_GN_74_L_300_Trail_3_orig.png,3,300,34.87429162314579,74,3.516204681614365,0.9960443402826006,47.552870816198855,1.4757265811651157,0.075522,0.0013232142683632156,669.8909544838868,15.59326227069453
525,300L_GN_2.0_6.0_25_225_trail_3/GS_34.874_GN_74_L_300_Trail_3_mirror.png,3,300,34.87429162314579,74,3.516204681614365,0.9960443402826006,47.552870816198855,1.4757265811651157,0.075522,0.0013232142683632156,669.8909544838868,15.59326227069453
526,300L_GN_2.0_6.0_25_225_trail_3/GS_34.874_GN_74_L_300_Trail_3_flip.png,3,300,34.87429162314579,74,3.516204681614365,0.9960443402826006,47.552870816198855,1.4757265811651157,0.075522,0.0013232142683632156,669.8909544838868,15.59326227069453
527,300L_GN_2.0_6.0_25_225_trail_3/GS_34.874_GN_74_L_300_Trail_3_mirror_flip.png,3,300,34.87429162314579,74,3.516204681614365,0.9960443402826006,47.552870816198855,1.4757265811651157,0.075522,0.0013232142683632156,669.8909544838868,15.59326227069453
528,300L_GN_2.0_6.0_25_225_trail_3/GS_33.968_GN_78_L_300_Trail_3_orig.png,3,300,33.96831102433787,78,4.183924501141663,0.5697515357165142,53.42036264398903,0.7087367550721708,0.08275400000000002,0.0013046624084413546,680.3983571151922,4.613726972805524
529,300L_GN_2.0_6.0_25_225_trail_3/GS_33.968_GN_78_L_300_Trail_3_mirror.png,3,300,33.96831102433787,78,4.183924501141663,0.5697515357165142,53.42036264398903,0.7087367550721708,0.08275400000000002,0.0013046624084413546,680.3983571151922,4.613726972805524
530,300L_GN_2.0_6.0_25_225_trail_3/GS_33.968_GN_78_L_300_Trail_3_flip.png,3,300,33.96831102433787,78,4.183924501141663,0.5697515357165142,53.42036264398903,0.7087367550721708,0.08275400000000002,0.0013046624084413546,680.3983571151922,4.613726972805524
531,300L_GN_2.0_6.0_25_225_trail_3/GS_33.968_GN_78_L_300_Trail_3_mirror_flip.png,3,300,33.96831102433787,78,4.183924501141663,0.5697515357165142,53.42036264398903,0.7087367550721708,0.08275400000000002,0.0013046624084413546,680.3983571151922,4.613726972805524
532,300L_GN_2.0_6.0_25_225_trail_3/GS_33.129_GN_82_L_300_Trail_3_orig.png,3,300,33.12945782245396,82,4.111095582987346,0.45361972566455755,47.24951932391241,1.1986595709678405,0.073952,0.00221416711203107,681.8440473148937,1.926935996791072
533,300L_GN_2.0_6.0_25_225_trail_3/GS_33.129_GN_82_L_300_Trail_3_mirror.png,3,300,33.12945782245396,82,4.111095582987346,0.45361972566455755,47.24951932391241,1.1986595709678405,0.073952,0.00221416711203107,681.8440473148937,1.926935996791072
534,300L_GN_2.0_6.0_25_225_trail_3/GS_33.129_GN_82_L_300_Trail_3_flip.png,3,300,33.12945782245396,82,4.111095582987346,0.45361972566455755,47.24951932391241,1.1986595709678405,0.073952,0.00221416711203107,681.8440473148937,1.926935996791072
535,300L_GN_2.0_6.0_25_225_trail_3/GS_33.129_GN_82_L_300_Trail_3_mirror_flip.png,3,300,33.12945782245396,82,4.111095582987346,0.45361972566455755,47.24951932391241,1.1986595709678405,0.073952,0.00221416711203107,681.8440473148937,1.926935996791072
536,300L_GN_2.0_6.0_25_225_trail_3/GS_32.163_GN_87_L_300_Trail_3_orig.png,3,300,32.163376045133845,87,3.9878237676882273,0.3717206192806442,48.594715962375474,1.03177508186673,0.07694800000000002,0.0035294498154811622,661.9025613791343,12.742324196174383
537,300L_GN_2.0_6.0_25_225_trail_3/GS_32.163_GN_87_L_300_Trail_3_mirror.png,3,300,32.163376045133845,87,3.9878237676882273,0.3717206192806442,48.594715962375474,1.03177508186673,0.07694800000000002,0.0035294498154811622,661.9025613791343,12.742324196174383
538,300L_GN_2.0_6.0_25_225_trail_3/GS_32.163_GN_87_L_300_Trail_3_flip.png,3,300,32.163376045133845,87,3.9878237676882273,0.3717206192806442,48.594715962375474,1.03177508186673,0.07694800000000002,0.0035294498154811622,661.9025613791343,12.742324196174383
539,300L_GN_2.0_6.0_25_225_trail_3/GS_32.163_GN_87_L_300_Trail_3_mirror_flip.png,3,300,32.163376045133845,87,3.9878237676882273,0.3717206192806442,48.594715962375474,1.03177508186673,0.07694800000000002,0.0035294498154811622,661.9025613791343,12.742324196174383
540,300L_GN_2.0_6.0_25_225_trail_3/GS_31.449_GN_91_L_300_Trail_3_orig.png,3,300,31.44854510165755,91,3.561787063531105,0.8387818917272368,49.67627511370748,1.3963568051934243,0.08059400000000001,0.0027533586762352627,655.6699101665124,2.5067724661391644
541,300L_GN_2.0_6.0_25_225_trail_3/GS_31.449_GN_91_L_300_Trail_3_mirror.png,3,300,31.44854510165755,91,3.561787063531105,0.8387818917272368,49.67627511370748,1.3963568051934243,0.08059400000000001,0.0027533586762352627,655.6699101665124,2.5067724661391644
542,300L_GN_2.0_6.0_25_225_trail_3/GS_31.449_GN_91_L_300_Trail_3_flip.png,3,300,31.44854510165755,91,3.561787063531105,0.8387818917272368,49.67627511370748,1.3963568051934243,0.08059400000000001,0.0027533586762352627,655.6699101665124,2.5067724661391644
543,300L_GN_2.0_6.0_25_225_trail_3/GS_31.449_GN_91_L_300_Trail_3_mirror_flip.png,3,300,31.44854510165755,91,3.561787063531105,0.8387818917272368,49.67627511370748,1.3963568051934243,0.08059400000000001,0.0027533586762352627,655.6699101665124,2.5067724661391644
544,300L_GN_2.0_6.0_25_225_trail_3/GS_30.779_GN_95_L_300_Trail_3_orig.png,3,300,30.779350562554626,95,3.619658129807374,0.22047175727212318,50.7541845491181,2.7548689336304903,0.08081400000000001,0.00574955163469292,663.0082070823062,9.167320369368394
545,300L_GN_2.0_6.0_25_225_trail_3/GS_30.779_GN_95_L_300_Trail_3_mirror.png,3,300,30.779350562554626,95,3.619658129807374,0.22047175727212318,50.7541845491181,2.7548689336304903,0.08081400000000001,0.00574955163469292,663.0082070823062,9.167320369368394
546,300L_GN_2.0_6.0_25_225_trail_3/GS_30.779_GN_95_L_300_Trail_3_flip.png,3,300,30.779350562554626,95,3.619658129807374,0.22047175727212318,50.7541845491181,2.7548689336304903,0.08081400000000001,0.00574955163469292,663.0082070823062,9.167320369368394
547,300L_GN_2.0_6.0_25_225_trail_3/GS_30.779_GN_95_L_300_Trail_3_mirror_flip.png,3,300,30.779350562554626,95,3.619658129807374,0.22047175727212318,50.7541845491181,2.7548689336304903,0.08081400000000001,0.00574955163469292,663.0082070823062,9.167320369368394
548,300L_GN_2.0_6.0_25_225_trail_3/GS_30.0_GN_100_L_300_Trail_3_orig.png,3,300,30.0,100,3.407998798305088,0.28588246064768896,48.40773278368343,5.042292471047888,0.0772,0.007466399399978549,659.9816983876424,8.036138865076481
549,300L_GN_2.0_6.0_25_225_trail_3/GS_30.0_GN_100_L_300_Trail_3_mirror.png,3,300,30.0,100,3.407998798305088,0.28588246064768896,48.40773278368343,5.042292471047888,0.0772,0.007466399399978549,659.9816983876424,8.036138865076481
550,300L_GN_2.0_6.0_25_225_trail_3/GS_30.0_GN_100_L_300_Trail_3_flip.png,3,300,30.0,100,3.407998798305088,0.28588246064768896,48.40773278368343,5.042292471047888,0.0772,0.007466399399978549,659.9816983876424,8.036138865076481
551,300L_GN_2.0_6.0_25_225_trail_3/GS_30.0_GN_100_L_300_Trail_3_mirror_flip.png,3,300,30.0,100,3.407998798305088,0.28588246064768896,48.40773278368343,5.042292471047888,0.0772,0.007466399399978549,659.9816983876424,8.036138865076481
552,300L_GN_2.0_6.0_25_225_trail_3/GS_29.139_GN_106_L_300_Trail_3_orig.png,3,300,29.138575870717926,106,4.533611295837547,0.7362922925823994,53.72834973944325,0.8777871245213367,0.08697400000000001,0.0016015317667782923,657.5305104048068,0.5768975639923052
553,300L_GN_2.0_6.0_25_225_trail_3/GS_29.139_GN_106_L_300_Trail_3_mirror.png,3,300,29.138575870717926,106,4.533611295837547,0.7362922925823994,53.72834973944325,0.8777871245213367,0.08697400000000001,0.0016015317667782923,657.5305104048068,0.5768975639923052
554,300L_GN_2.0_6.0_25_225_trail_3/GS_29.139_GN_106_L_300_Trail_3_flip.png,3,300,29.138575870717926,106,4.533611295837547,0.7362922925823994,53.72834973944325,0.8777871245213367,0.08697400000000001,0.0016015317667782923,657.5305104048068,0.5768975639923052
555,300L_GN_2.0_6.0_25_225_trail_3/GS_29.139_GN_106_L_300_Trail_3_mirror_flip.png,3,300,29.138575870717926,106,4.533611295837547,0.7362922925823994,53.72834973944325,0.8777871245213367,0.08697400000000001,0.0016015317667782923,657.5305104048068,0.5768975639923052
556,300L_GN_2.0_6.0_25_225_trail_3/GS_28.347_GN_112_L_300_Trail_3_orig.png,3,300,28.34733547569204,112,3.4191927782535814,0.6177954741221883,48.246093615129226,2.1515313476768587,0.076048,0.0037508420387960912,664.5549240274916,1.1685442411345697
557,300L_GN_2.0_6.0_25_225_trail_3/GS_28.347_GN_112_L_300_Trail_3_mirror.png,3,300,28.34733547569204,112,3.4191927782535814,0.6177954741221883,48.246093615129226,2.1515313476768587,0.076048,0.0037508420387960912,664.5549240274916,1.1685442411345697
558,300L_GN_2.0_6.0_25_225_trail_3/GS_28.347_GN_112_L_300_Trail_3_flip.png,3,300,28.34733547569204,112,3.4191927782535814,0.6177954741221883,48.246093615129226,2.1515313476768587,0.076048,0.0037508420387960912,664.5549240274916,1.1685442411345697
559,300L_GN_2.0_6.0_25_225_trail_3/GS_28.347_GN_112_L_300_Trail_3_mirror_flip.png,3,300,28.34733547569204,112,3.4191927782535814,0.6177954741221883,48.246093615129226,2.1515313476768587,0.076048,0.0037508420387960912,664.5549240274916,1.1685442411345697
560,300L_GN_2.0_6.0_25_225_trail_3/GS_27.501_GN_119_L_300_Trail_3_orig.png,3,300,27.50095491084634,119,3.650211461792339,0.3266041864206168,49.11308825741115,3.2045664717967006,0.0776,0.0049711769230233556,665.0618077366878,4.5263395201247185
561,300L_GN_2.0_6.0_25_225_trail_3/GS_27.501_GN_119_L_300_Trail_3_mirror.png,3,300,27.50095491084634,119,3.650211461792339,0.3266041864206168,49.11308825741115,3.2045664717967006,0.0776,0.0049711769230233556,665.0618077366878,4.5263395201247185
562,300L_GN_2.0_6.0_25_225_trail_3/GS_27.501_GN_119_L_300_Trail_3_flip.png,3,300,27.50095491084634,119,3.650211461792339,0.3266041864206168,49.11308825741115,3.2045664717967006,0.0776,0.0049711769230233556,665.0618077366878,4.5263395201247185
563,300L_GN_2.0_6.0_25_225_trail_3/GS_27.501_GN_119_L_300_Trail_3_mirror_flip.png,3,300,27.50095491084634,119,3.650211461792339,0.3266041864206168,49.11308825741115,3.2045664717967006,0.0776,0.0049711769230233556,665.0618077366878,4.5263395201247185
564,300L_GN_2.0_6.0_25_225_trail_3/GS_26.726_GN_126_L_300_Trail_3_orig.png,3,300,26.726124191242437,126,2.9972301201513765,0.30955886337074767,45.31131144875424,1.3173040858651923,0.07209600000000001,0.0019343691478102148,653.6441651664006,2.4101252898404706
565,300L_GN_2.0_6.0_25_225_trail_3/GS_26.726_GN_126_L_300_Trail_3_mirror.png,3,300,26.726124191242437,126,2.9972301201513765,0.30955886337074767,45.31131144875424,1.3173040858651923,0.07209600000000001,0.0019343691478102148,653.6441651664006,2.4101252898404706
566,300L_GN_2.0_6.0_25_225_trail_3/GS_26.726_GN_126_L_300_Trail_3_flip.png,3,300,26.726124191242437,126,2.9972301201513765,0.30955886337074767,45.31131144875424,1.3173040858651923,0.07209600000000001,0.0019343691478102148,653.6441651664006,2.4101252898404706
567,300L_GN_2.0_6.0_25_225_trail_3/GS_26.726_GN_126_L_300_Trail_3_mirror_flip.png,3,300,26.726124191242437,126,2.9972301201513765,0.30955886337074767,45.31131144875424,1.3173040858651923,0.07209600000000001,0.0019343691478102148,653.6441651664006,2.4101252898404706
568,300L_GN_2.0_6.0_25_225_trail_3/GS_26.112_GN_132_L_300_Trail_3_orig.png,3,300,26.111648393354677,132,3.7461445127036983,0.30736490924475246,48.56222232903718,2.6188255072799866,0.07821600000000001,0.003584079240195453,661.1373345647714,1.5409809922784827
569,300L_GN_2.0_6.0_25_225_trail_3/GS_26.112_GN_132_L_300_Trail_3_mirror.png,3,300,26.111648393354677,132,3.7461445127036983,0.30736490924475246,48.56222232903718,2.6188255072799866,0.07821600000000001,0.003584079240195453,661.1373345647714,1.5409809922784827
570,300L_GN_2.0_6.0_25_225_trail_3/GS_26.112_GN_132_L_300_Trail_3_flip.png,3,300,26.111648393354677,132,3.7461445127036983,0.30736490924475246,48.56222232903718,2.6188255072799866,0.07821600000000001,0.003584079240195453,661.1373345647714,1.5409809922784827
571,300L_GN_2.0_6.0_25_225_trail_3/GS_26.112_GN_132_L_300_Trail_3_mirror_flip.png,3,300,26.111648393354677,132,3.7461445127036983,0.30736490924475246,48.56222232903718,2.6188255072799866,0.07821600000000001,0.003584079240195453,661.1373345647714,1.5409809922784827
572,300L_GN_2.0_6.0_25_225_trail_3/GS_25.0_GN_144_L_300_Trail_3_orig.png,3,300,25.0,144,4.0199288698569555,0.6750065753932473,49.281004692834045,0.7029655664536107,0.07977800000000002,0.0008926679113757792,646.1916638952024,4.213504807505784
573,300L_GN_2.0_6.0_25_225_trail_3/GS_25.0_GN_144_L_300_Trail_3_mirror.png,3,300,25.0,144,4.0199288698569555,0.6750065753932473,49.281004692834045,0.7029655664536107,0.07977800000000002,0.0008926679113757792,646.1916638952024,4.213504807505784
574,300L_GN_2.0_6.0_25_225_trail_3/GS_25.0_GN_144_L_300_Trail_3_flip.png,3,300,25.0,144,4.0199288698569555,0.6750065753932473,49.281004692834045,0.7029655664536107,0.07977800000000002,0.0008926679113757792,646.1916638952024,4.213504807505784
575,300L_GN_2.0_6.0_25_225_trail_3/GS_25.0_GN_144_L_300_Trail_3_mirror_flip.png,3,300,25.0,144,4.0199288698569555,0.6750065753932473,49.281004692834045,0.7029655664536107,0.07977800000000002,0.0008926679113757792,646.1916638952024,4.213504807505784
576,300L_GN_2.0_6.0_25_225_trail_3/GS_24.333_GN_152_L_300_Trail_3_orig.png,3,300,24.333213169614382,152,4.363764326617179,0.38260996436513656,50.05879807506405,2.406435740775024,0.08135200000000002,0.004222167216015965,656.4715079484955,1.9282401487658318
577,300L_GN_2.0_6.0_25_225_trail_3/GS_24.333_GN_152_L_300_Trail_3_mirror.png,3,300,24.333213169614382,152,4.363764326617179,0.38260996436513656,50.05879807506405,2.406435740775024,0.08135200000000002,0.004222167216015965,656.4715079484955,1.9282401487658318
578,300L_GN_2.0_6.0_25_225_trail_3/GS_24.333_GN_152_L_300_Trail_3_flip.png,3,300,24.333213169614382,152,4.363764326617179,0.38260996436513656,50.05879807506405,2.406435740775024,0.08135200000000002,0.004222167216015965,656.4715079484955,1.9282401487658318
579,300L_GN_2.0_6.0_25_225_trail_3/GS_24.333_GN_152_L_300_Trail_3_mirror_flip.png,3,300,24.333213169614382,152,4.363764326617179,0.38260996436513656,50.05879807506405,2.406435740775024,0.08135200000000002,0.004222167216015965,656.4715079484955,1.9282401487658318
580,300L_GN_2.0_6.0_25_225_trail_3/GS_23.717_GN_160_L_300_Trail_3_orig.png,3,300,23.717082451262844,160,4.9681526489438355,0.556992134026035,48.369493974616,0.8113617401070997,0.0794,0.0019037331745809353,640.5444830122793,8.793073168891402
581,300L_GN_2.0_6.0_25_225_trail_3/GS_23.717_GN_160_L_300_Trail_3_mirror.png,3,300,23.717082451262844,160,4.9681526489438355,0.556992134026035,48.369493974616,0.8113617401070997,0.0794,0.0019037331745809353,640.5444830122793,8.793073168891402
582,300L_GN_2.0_6.0_25_225_trail_3/GS_23.717_GN_160_L_300_Trail_3_flip.png,3,300,23.717082451262844,160,4.9681526489438355,0.556992134026035,48.369493974616,0.8113617401070997,0.0794,0.0019037331745809353,640.5444830122793,8.793073168891402
583,300L_GN_2.0_6.0_25_225_trail_3/GS_23.717_GN_160_L_300_Trail_3_mirror_flip.png,3,300,23.717082451262844,160,4.9681526489438355,0.556992134026035,48.369493974616,0.8113617401070997,0.0794,0.0019037331745809353,640.5444830122793,8.793073168891402
584,300L_GN_2.0_6.0_25_225_trail_3/GS_23.146_GN_168_L_300_Trail_3_orig.png,3,300,23.145502494313785,168,4.218532635754521,0.649294499064715,50.62676306167163,0.8838271404732161,0.083982,0.001681967895056261,638.2838507040617,4.809282210574895
585,300L_GN_2.0_6.0_25_225_trail_3/GS_23.146_GN_168_L_300_Trail_3_mirror.png,3,300,23.145502494313785,168,4.218532635754521,0.649294499064715,50.62676306167163,0.8838271404732161,0.083982,0.001681967895056261,638.2838507040617,4.809282210574895
586,300L_GN_2.0_6.0_25_225_trail_3/GS_23.146_GN_168_L_300_Trail_3_flip.png,3,300,23.145502494313785,168,4.218532635754521,0.649294499064715,50.62676306167163,0.8838271404732161,0.083982,0.001681967895056261,638.2838507040617,4.809282210574895
587,300L_GN_2.0_6.0_25_225_trail_3/GS_23.146_GN_168_L_300_Trail_3_mirror_flip.png,3,300,23.145502494313785,168,4.218532635754521,0.649294499064715,50.62676306167163,0.8838271404732161,0.083982,0.001681967895056261,638.2838507040617,4.809282210574895
588,300L_GN_2.0_6.0_25_225_trail_3/GS_22.486_GN_178_L_300_Trail_3_orig.png,3,300,22.48595066987584,178,3.7450525950534286,0.3576627483883875,47.832300936753725,3.310181906564234,0.07808600000000002,0.006525156243340077,642.130258328343,12.697747312874473
589,300L_GN_2.0_6.0_25_225_trail_3/GS_22.486_GN_178_L_300_Trail_3_mirror.png,3,300,22.48595066987584,178,3.7450525950534286,0.3576627483883875,47.832300936753725,3.310181906564234,0.07808600000000002,0.006525156243340077,642.130258328343,12.697747312874473
590,300L_GN_2.0_6.0_25_225_trail_3/GS_22.486_GN_178_L_300_Trail_3_flip.png,3,300,22.48595066987584,178,3.7450525950534286,0.3576627483883875,47.832300936753725,3.310181906564234,0.07808600000000002,0.006525156243340077,642.130258328343,12.697747312874473
591,300L_GN_2.0_6.0_25_225_trail_3/GS_22.486_GN_178_L_300_Trail_3_mirror_flip.png,3,300,22.48595066987584,178,3.7450525950534286,0.3576627483883875,47.832300936753725,3.310181906564234,0.07808600000000002,0.006525156243340077,642.130258328343,12.697747312874473
592,300L_GN_2.0_6.0_25_225_trail_3/GS_21.213_GN_200_L_300_Trail_3_orig.png,3,300,21.213203435596427,200,4.443266594238651,1.0499892141815987,50.13571266445735,0.7452210957540071,0.082524,0.000993651850498956,637.6849415050251,5.270002869583882
593,300L_GN_2.0_6.0_25_225_trail_3/GS_21.213_GN_200_L_300_Trail_3_mirror.png,3,300,21.213203435596427,200,4.443266594238651,1.0499892141815987,50.13571266445735,0.7452210957540071,0.082524,0.000993651850498956,637.6849415050251,5.270002869583882
594,300L_GN_2.0_6.0_25_225_trail_3/GS_21.213_GN_200_L_300_Trail_3_flip.png,3,300,21.213203435596427,200,4.443266594238651,1.0499892141815987,50.13571266445735,0.7452210957540071,0.082524,0.000993651850498956,637.6849415050251,5.270002869583882
595,300L_GN_2.0_6.0_25_225_trail_3/GS_21.213_GN_200_L_300_Trail_3_mirror_flip.png,3,300,21.213203435596427,200,4.443266594238651,1.0499892141815987,50.13571266445735,0.7452210957540071,0.082524,0.000993651850498956,637.6849415050251,5.270002869583882
596,300L_GN_2.0_6.0_25_225_trail_3/GS_20.0_GN_225_L_300_Trail_3_orig.png,3,300,20.0,225,4.621824713721504,0.6356905469437647,45.97834841960363,2.0333834806786655,0.078168,0.0028947082754571312,621.5008485110292,1.1588634973390353
597,300L_GN_2.0_6.0_25_225_trail_3/GS_20.0_GN_225_L_300_Trail_3_mirror.png,3,300,20.0,225,4.621824713721504,0.6356905469437647,45.97834841960363,2.0333834806786655,0.078168,0.0028947082754571312,621.5008485110292,1.1588634973390353
598,300L_GN_2.0_6.0_25_225_trail_3/GS_20.0_GN_225_L_300_Trail_3_flip.png,3,300,20.0,225,4.621824713721504,0.6356905469437647,45.97834841960363,2.0333834806786655,0.078168,0.0028947082754571312,621.5008485110292,1.1588634973390353
599,300L_GN_2.0_6.0_25_225_trail_3/GS_20.0_GN_225_L_300_Trail_3_mirror_flip.png,3,300,20.0,225,4.621824713721504,0.6356905469437647,45.97834841960363,2.0333834806786655,0.078168,0.0028947082754571312,621.5008485110292,1.1588634973390353
600,300L_GN_2.0_6.0_25_225_trail_4/GS_60.0_GN_25_L_300_Trail_4_orig.png,4,300,60.0,25,4.454046775203655,0.15241846169607196,56.28991494526482,0.41774419970811494,0.084246,0.0007467422580783791,725.5104986466425,1.6217769598478209
601,300L_GN_2.0_6.0_25_225_trail_4/GS_60.0_GN_25_L_300_Trail_4_mirror.png,4,300,60.0,25,4.454046775203655,0.15241846169607196,56.28991494526482,0.41774419970811494,0.084246,0.0007467422580783791,725.5104986466425,1.6217769598478209
602,300L_GN_2.0_6.0_25_225_trail_4/GS_60.0_GN_25_L_300_Trail_4_flip.png,4,300,60.0,25,4.454046775203655,0.15241846169607196,56.28991494526482,0.41774419970811494,0.084246,0.0007467422580783791,725.5104986466425,1.6217769598478209
603,300L_GN_2.0_6.0_25_225_trail_4/GS_60.0_GN_25_L_300_Trail_4_mirror_flip.png,4,300,60.0,25,4.454046775203655,0.15241846169607196,56.28991494526482,0.41774419970811494,0.084246,0.0007467422580783791,725.5104986466425,1.6217769598478209
604,300L_GN_2.0_6.0_25_225_trail_4/GS_58.835_GN_26_L_300_Trail_4_orig.png,4,300,58.834840541455215,26,4.395826277765801,0.23826180361243338,57.09700251759058,0.6282775642225216,0.08692600000000002,0.0011869726197347628,725.0076595274307,1.1672238940461388
605,300L_GN_2.0_6.0_25_225_trail_4/GS_58.835_GN_26_L_300_Trail_4_mirror.png,4,300,58.834840541455215,26,4.395826277765801,0.23826180361243338,57.09700251759058,0.6282775642225216,0.08692600000000002,0.0011869726197347628,725.0076595274307,1.1672238940461388
606,300L_GN_2.0_6.0_25_225_trail_4/GS_58.835_GN_26_L_300_Trail_4_flip.png,4,300,58.834840541455215,26,4.395826277765801,0.23826180361243338,57.09700251759058,0.6282775642225216,0.08692600000000002,0.0011869726197347628,725.0076595274307,1.1672238940461388
607,300L_GN_2.0_6.0_25_225_trail_4/GS_58.835_GN_26_L_300_Trail_4_mirror_flip.png,4,300,58.834840541455215,26,4.395826277765801,0.23826180361243338,57.09700251759058,0.6282775642225216,0.08692600000000002,0.0011869726197347628,725.0076595274307,1.1672238940461388
608,300L_GN_2.0_6.0_25_225_trail_4/GS_57.735_GN_27_L_300_Trail_4_orig.png,4,300,57.735026918962575,27,3.941927990608872,0.24377311669495666,54.38995619004843,0.2822181941578841,0.08207600000000001,0.0005022588973826159,715.9973812863221,0.6933126184575281
609,300L_GN_2.0_6.0_25_225_trail_4/GS_57.735_GN_27_L_300_Trail_4_mirror.png,4,300,57.735026918962575,27,3.941927990608872,0.24377311669495666,54.38995619004843,0.2822181941578841,0.08207600000000001,0.0005022588973826159,715.9973812863221,0.6933126184575281
610,300L_GN_2.0_6.0_25_225_trail_4/GS_57.735_GN_27_L_300_Trail_4_flip.png,4,300,57.735026918962575,27,3.941927990608872,0.24377311669495666,54.38995619004843,0.2822181941578841,0.08207600000000001,0.0005022588973826159,715.9973812863221,0.6933126184575281
611,300L_GN_2.0_6.0_25_225_trail_4/GS_57.735_GN_27_L_300_Trail_4_mirror_flip.png,4,300,57.735026918962575,27,3.941927990608872,0.24377311669495666,54.38995619004843,0.2822181941578841,0.08207600000000001,0.0005022588973826159,715.9973812863221,0.6933126184575281
612,300L_GN_2.0_6.0_25_225_trail_4/GS_56.695_GN_28_L_300_Trail_4_orig.png,4,300,56.69467095138408,28,4.300556342631125,0.3921879433754536,56.84872958954371,0.4472919089185206,0.08711600000000001,0.0006968672757419447,706.4100227532488,2.754467011804131
613,300L_GN_2.0_6.0_25_225_trail_4/GS_56.695_GN_28_L_300_Trail_4_mirror.png,4,300,56.69467095138408,28,4.300556342631125,0.3921879433754536,56.84872958954371,0.4472919089185206,0.08711600000000001,0.0006968672757419447,706.4100227532488,2.754467011804131
614,300L_GN_2.0_6.0_25_225_trail_4/GS_56.695_GN_28_L_300_Trail_4_flip.png,4,300,56.69467095138408,28,4.300556342631125,0.3921879433754536,56.84872958954371,0.4472919089185206,0.08711600000000001,0.0006968672757419447,706.4100227532488,2.754467011804131
615,300L_GN_2.0_6.0_25_225_trail_4/GS_56.695_GN_28_L_300_Trail_4_mirror_flip.png,4,300,56.69467095138408,28,4.300556342631125,0.3921879433754536,56.84872958954371,0.4472919089185206,0.08711600000000001,0.0006968672757419447,706.4100227532488,2.754467011804131
616,300L_GN_2.0_6.0_25_225_trail_4/GS_55.709_GN_29_L_300_Trail_4_orig.png,4,300,55.70860145311556,29,4.542556426399755,0.09769247259232239,48.5376158153448,0.5487776594481286,0.070964,0.0007391508641677937,730.9359087189054,1.3095597401915577
617,300L_GN_2.0_6.0_25_225_trail_4/GS_55.709_GN_29_L_300_Trail_4_mirror.png,4,300,55.70860145311556,29,4.542556426399755,0.09769247259232239,48.5376158153448,0.5487776594481286,0.070964,0.0007391508641677937,730.9359087189054,1.3095597401915577
618,300L_GN_2.0_6.0_25_225_trail_4/GS_55.709_GN_29_L_300_Trail_4_flip.png,4,300,55.70860145311556,29,4.542556426399755,0.09769247259232239,48.5376158153448,0.5487776594481286,0.070964,0.0007391508641677937,730.9359087189054,1.3095597401915577
619,300L_GN_2.0_6.0_25_225_trail_4/GS_55.709_GN_29_L_300_Trail_4_mirror_flip.png,4,300,55.70860145311556,29,4.542556426399755,0.09769247259232239,48.5376158153448,0.5487776594481286,0.070964,0.0007391508641677937,730.9359087189054,1.3095597401915577
620,300L_GN_2.0_6.0_25_225_trail_4/GS_54.772_GN_30_L_300_Trail_4_orig.png,4,300,54.772255750516614,30,4.917975339652115,0.6755296903333352,54.100298707148966,0.987254808988263,0.08266000000000001,0.001597911136452841,711.3731751858855,1.1369990417555993
621,300L_GN_2.0_6.0_25_225_trail_4/GS_54.772_GN_30_L_300_Trail_4_mirror.png,4,300,54.772255750516614,30,4.917975339652115,0.6755296903333352,54.100298707148966,0.987254808988263,0.08266000000000001,0.001597911136452841,711.3731751858855,1.1369990417555993
622,300L_GN_2.0_6.0_25_225_trail_4/GS_54.772_GN_30_L_300_Trail_4_flip.png,4,300,54.772255750516614,30,4.917975339652115,0.6755296903333352,54.100298707148966,0.987254808988263,0.08266000000000001,0.001597911136452841,711.3731751858855,1.1369990417555993
623,300L_GN_2.0_6.0_25_225_trail_4/GS_54.772_GN_30_L_300_Trail_4_mirror_flip.png,4,300,54.772255750516614,30,4.917975339652115,0.6755296903333352,54.100298707148966,0.987254808988263,0.08266000000000001,0.001597911136452841,711.3731751858855,1.1369990417555993
624,300L_GN_2.0_6.0_25_225_trail_4/GS_53.882_GN_31_L_300_Trail_4_orig.png,4,300,53.881590608032475,31,4.008962765026654,0.6170016654996195,56.17674657031775,0.1569578355681944,0.086522,0.0001483778959279296,699.5827145981402,2.405713362706826
625,300L_GN_2.0_6.0_25_225_trail_4/GS_53.882_GN_31_L_300_Trail_4_mirror.png,4,300,53.881590608032475,31,4.008962765026654,0.6170016654996195,56.17674657031775,0.1569578355681944,0.086522,0.0001483778959279296,699.5827145981402,2.405713362706826
626,300L_GN_2.0_6.0_25_225_trail_4/GS_53.882_GN_31_L_300_Trail_4_flip.png,4,300,53.881590608032475,31,4.008962765026654,0.6170016654996195,56.17674657031775,0.1569578355681944,0.086522,0.0001483778959279296,699.5827145981402,2.405713362706826
627,300L_GN_2.0_6.0_25_225_trail_4/GS_53.882_GN_31_L_300_Trail_4_mirror_flip.png,4,300,53.881590608032475,31,4.008962765026654,0.6170016654996195,56.17674657031775,0.1569578355681944,0.086522,0.0001483778959279296,699.5827145981402,2.405713362706826
628,300L_GN_2.0_6.0_25_225_trail_4/GS_53.033_GN_32_L_300_Trail_4_orig.png,4,300,53.03300858899106,32,4.462527711358197,0.966019250291279,56.990887613556765,0.8932449084468436,0.08752400000000002,0.0015999699997187422,705.0084924767796,0.704543541743444
629,300L_GN_2.0_6.0_25_225_trail_4/GS_53.033_GN_32_L_300_Trail_4_mirror.png,4,300,53.03300858899106,32,4.462527711358197,0.966019250291279,56.990887613556765,0.8932449084468436,0.08752400000000002,0.0015999699997187422,705.0084924767796,0.704543541743444
630,300L_GN_2.0_6.0_25_225_trail_4/GS_53.033_GN_32_L_300_Trail_4_flip.png,4,300,53.03300858899106,32,4.462527711358197,0.966019250291279,56.990887613556765,0.8932449084468436,0.08752400000000002,0.0015999699997187422,705.0084924767796,0.704543541743444
631,300L_GN_2.0_6.0_25_225_trail_4/GS_53.033_GN_32_L_300_Trail_4_mirror_flip.png,4,300,53.03300858899106,32,4.462527711358197,0.966019250291279,56.990887613556765,0.8932449084468436,0.08752400000000002,0.0015999699997187422,705.0084924767796,0.704543541743444
632,300L_GN_2.0_6.0_25_225_trail_4/GS_52.223_GN_33_L_300_Trail_4_orig.png,4,300,52.223296786709355,33,4.519946036883243,0.25766877774015357,53.12602293019861,0.6129910289209464,0.08131000000000002,0.0010049875621120897,700.933502141757,0.6908458643581624
633,300L_GN_2.0_6.0_25_225_trail_4/GS_52.223_GN_33_L_300_Trail_4_mirror.png,4,300,52.223296786709355,33,4.519946036883243,0.25766877774015357,53.12602293019861,0.6129910289209464,0.08131000000000002,0.0010049875621120897,700.933502141757,0.6908458643581624
634,300L_GN_2.0_6.0_25_225_trail_4/GS_52.223_GN_33_L_300_Trail_4_flip.png,4,300,52.223296786709355,33,4.519946036883243,0.25766877774015357,53.12602293019861,0.6129910289209464,0.08131000000000002,0.0010049875621120897,700.933502141757,0.6908458643581624
635,300L_GN_2.0_6.0_25_225_trail_4/GS_52.223_GN_33_L_300_Trail_4_mirror_flip.png,4,300,52.223296786709355,33,4.519946036883243,0.25766877774015357,53.12602293019861,0.6129910289209464,0.08131000000000002,0.0010049875621120897,700.933502141757,0.6908458643581624
636,300L_GN_2.0_6.0_25_225_trail_4/GS_51.45_GN_34_L_300_Trail_4_orig.png,4,300,51.44957554275265,34,5.035156705573379,0.5054932220883009,53.88189867111258,0.6439939920231638,0.077978,0.0008625404338348412,735.1691693166574,0.2991755046328421
637,300L_GN_2.0_6.0_25_225_trail_4/GS_51.45_GN_34_L_300_Trail_4_mirror.png,4,300,51.44957554275265,34,5.035156705573379,0.5054932220883009,53.88189867111258,0.6439939920231638,0.077978,0.0008625404338348412,735.1691693166574,0.2991755046328421
638,300L_GN_2.0_6.0_25_225_trail_4/GS_51.45_GN_34_L_300_Trail_4_flip.png,4,300,51.44957554275265,34,5.035156705573379,0.5054932220883009,53.88189867111258,0.6439939920231638,0.077978,0.0008625404338348412,735.1691693166574,0.2991755046328421
639,300L_GN_2.0_6.0_25_225_trail_4/GS_51.45_GN_34_L_300_Trail_4_mirror_flip.png,4,300,51.44957554275265,34,5.035156705573379,0.5054932220883009,53.88189867111258,0.6439939920231638,0.077978,0.0008625404338348412,735.1691693166574,0.2991755046328421
640,300L_GN_2.0_6.0_25_225_trail_4/GS_50.709_GN_35_L_300_Trail_4_orig.png,4,300,50.709255283710995,35,4.580004562327401,0.14538046918714295,51.70348484155748,1.990381567625447,0.078074,0.0029522506668641806,709.8668571427713,1.5715818030544022
641,300L_GN_2.0_6.0_25_225_trail_4/GS_50.709_GN_35_L_300_Trail_4_mirror.png,4,300,50.709255283710995,35,4.580004562327401,0.14538046918714295,51.70348484155748,1.990381567625447,0.078074,0.0029522506668641806,709.8668571427713,1.5715818030544022
642,300L_GN_2.0_6.0_25_225_trail_4/GS_50.709_GN_35_L_300_Trail_4_flip.png,4,300,50.709255283710995,35,4.580004562327401,0.14538046918714295,51.70348484155748,1.990381567625447,0.078074,0.0029522506668641806,709.8668571427713,1.5715818030544022
643,300L_GN_2.0_6.0_25_225_trail_4/GS_50.709_GN_35_L_300_Trail_4_mirror_flip.png,4,300,50.709255283710995,35,4.580004562327401,0.14538046918714295,51.70348484155748,1.990381567625447,0.078074,0.0029522506668641806,709.8668571427713,1.5715818030544022
644,300L_GN_2.0_6.0_25_225_trail_4/GS_50.0_GN_36_L_300_Trail_4_orig.png,4,300,50.0,36,3.8675671018624675,0.2699091932377265,46.57315040587524,0.8941981686284955,0.06991200000000002,0.0012605935110097943,707.1685530415299,1.1527964713160612
645,300L_GN_2.0_6.0_25_225_trail_4/GS_50.0_GN_36_L_300_Trail_4_mirror.png,4,300,50.0,36,3.8675671018624675,0.2699091932377265,46.57315040587524,0.8941981686284955,0.06991200000000002,0.0012605935110097943,707.1685530415299,1.1527964713160612
646,300L_GN_2.0_6.0_25_225_trail_4/GS_50.0_GN_36_L_300_Trail_4_flip.png,4,300,50.0,36,3.8675671018624675,0.2699091932377265,46.57315040587524,0.8941981686284955,0.06991200000000002,0.0012605935110097943,707.1685530415299,1.1527964713160612
647,300L_GN_2.0_6.0_25_225_trail_4/GS_50.0_GN_36_L_300_Trail_4_mirror_flip.png,4,300,50.0,36,3.8675671018624675,0.2699091932377265,46.57315040587524,0.8941981686284955,0.06991200000000002,0.0012605935110097943,707.1685530415299,1.1527964713160612
648,300L_GN_2.0_6.0_25_225_trail_4/GS_49.32_GN_37_L_300_Trail_4_orig.png,4,300,49.31969619160719,37,4.0543332377392165,0.7401493568601883,53.03945311713922,1.432771621499512,0.07892400000000001,0.001953433899572747,720.7972600869043,1.732990025395952
649,300L_GN_2.0_6.0_25_225_trail_4/GS_49.32_GN_37_L_300_Trail_4_mirror.png,4,300,49.31969619160719,37,4.0543332377392165,0.7401493568601883,53.03945311713922,1.432771621499512,0.07892400000000001,0.001953433899572747,720.7972600869043,1.732990025395952
650,300L_GN_2.0_6.0_25_225_trail_4/GS_49.32_GN_37_L_300_Trail_4_flip.png,4,300,49.31969619160719,37,4.0543332377392165,0.7401493568601883,53.03945311713922,1.432771621499512,0.07892400000000001,0.001953433899572747,720.7972600869043,1.732990025395952
651,300L_GN_2.0_6.0_25_225_trail_4/GS_49.32_GN_37_L_300_Trail_4_mirror_flip.png,4,300,49.31969619160719,37,4.0543332377392165,0.7401493568601883,53.03945311713922,1.432771621499512,0.07892400000000001,0.001953433899572747,720.7972600869043,1.732990025395952
652,300L_GN_2.0_6.0_25_225_trail_4/GS_48.666_GN_38_L_300_Trail_4_orig.png,4,300,48.666426339228764,38,4.2801587184467556,1.107028141968816,49.43346026381993,4.4336491438283065,0.07658400000000001,0.0073188266819210835,695.4968464707284,1.3610398345425732
653,300L_GN_2.0_6.0_25_225_trail_4/GS_48.666_GN_38_L_300_Trail_4_mirror.png,4,300,48.666426339228764,38,4.2801587184467556,1.107028141968816,49.43346026381993,4.4336491438283065,0.07658400000000001,0.0073188266819210835,695.4968464707284,1.3610398345425732
654,300L_GN_2.0_6.0_25_225_trail_4/GS_48.666_GN_38_L_300_Trail_4_flip.png,4,300,48.666426339228764,38,4.2801587184467556,1.107028141968816,49.43346026381993,4.4336491438283065,0.07658400000000001,0.0073188266819210835,695.4968464707284,1.3610398345425732
655,300L_GN_2.0_6.0_25_225_trail_4/GS_48.666_GN_38_L_300_Trail_4_mirror_flip.png,4,300,48.666426339228764,38,4.2801587184467556,1.107028141968816,49.43346026381993,4.4336491438283065,0.07658400000000001,0.0073188266819210835,695.4968464707284,1.3610398345425732
656,300L_GN_2.0_6.0_25_225_trail_4/GS_48.038_GN_39_L_300_Trail_4_orig.png,4,300,48.03844614152614,39,4.206703465864709,0.30381783590635036,55.62630181365621,1.167038503093718,0.085272,0.0016063548798444262,709.7288335291133,1.0672576274714407
657,300L_GN_2.0_6.0_25_225_trail_4/GS_48.038_GN_39_L_300_Trail_4_mirror.png,4,300,48.03844614152614,39,4.206703465864709,0.30381783590635036,55.62630181365621,1.167038503093718,0.085272,0.0016063548798444262,709.7288335291133,1.0672576274714407
658,300L_GN_2.0_6.0_25_225_trail_4/GS_48.038_GN_39_L_300_Trail_4_flip.png,4,300,48.03844614152614,39,4.206703465864709,0.30381783590635036,55.62630181365621,1.167038503093718,0.085272,0.0016063548798444262,709.7288335291133,1.0672576274714407
659,300L_GN_2.0_6.0_25_225_trail_4/GS_48.038_GN_39_L_300_Trail_4_mirror_flip.png,4,300,48.03844614152614,39,4.206703465864709,0.30381783590635036,55.62630181365621,1.167038503093718,0.085272,0.0016063548798444262,709.7288335291133,1.0672576274714407
660,300L_GN_2.0_6.0_25_225_trail_4/GS_47.434_GN_40_L_300_Trail_4_orig.png,4,300,47.43416490252569,40,4.186324844979717,0.18912605663641066,52.257800638483694,0.8781070569896344,0.079754,0.0014246487286345374,705.3921515905245,2.0397137001118963
661,300L_GN_2.0_6.0_25_225_trail_4/GS_47.434_GN_40_L_300_Trail_4_mirror.png,4,300,47.43416490252569,40,4.186324844979717,0.18912605663641066,52.257800638483694,0.8781070569896344,0.079754,0.0014246487286345374,705.3921515905245,2.0397137001118963
662,300L_GN_2.0_6.0_25_225_trail_4/GS_47.434_GN_40_L_300_Trail_4_flip.png,4,300,47.43416490252569,40,4.186324844979717,0.18912605663641066,52.257800638483694,0.8781070569896344,0.079754,0.0014246487286345374,705.3921515905245,2.0397137001118963
663,300L_GN_2.0_6.0_25_225_trail_4/GS_47.434_GN_40_L_300_Trail_4_mirror_flip.png,4,300,47.43416490252569,40,4.186324844979717,0.18912605663641066,52.257800638483694,0.8781070569896344,0.079754,0.0014246487286345374,705.3921515905245,2.0397137001118963
664,300L_GN_2.0_6.0_25_225_trail_4/GS_46.852_GN_41_L_300_Trail_4_orig.png,4,300,46.85212856658182,41,5.152850510473936,0.1764371883308102,51.20884046202507,1.105388758965107,0.0800275,0.0016606230005633438,686.7401902969729,1.3317204816868036
665,300L_GN_2.0_6.0_25_225_trail_4/GS_46.852_GN_41_L_300_Trail_4_mirror.png,4,300,46.85212856658182,41,5.152850510473936,0.1764371883308102,51.20884046202507,1.105388758965107,0.0800275,0.0016606230005633438,686.7401902969729,1.3317204816868036
666,300L_GN_2.0_6.0_25_225_trail_4/GS_46.852_GN_41_L_300_Trail_4_flip.png,4,300,46.85212856658182,41,5.152850510473936,0.1764371883308102,51.20884046202507,1.105388758965107,0.0800275,0.0016606230005633438,686.7401902969729,1.3317204816868036
667,300L_GN_2.0_6.0_25_225_trail_4/GS_46.852_GN_41_L_300_Trail_4_mirror_flip.png,4,300,46.85212856658182,41,5.152850510473936,0.1764371883308102,51.20884046202507,1.105388758965107,0.0800275,0.0016606230005633438,686.7401902969729,1.3317204816868036
668,300L_GN_2.0_6.0_25_225_trail_4/GS_45.75_GN_43_L_300_Trail_4_orig.png,4,300,45.7495710997814,43,3.848709358882411,0.5255322139101704,49.060181116859816,1.4971125667680558,0.074854,0.002991364905858192,695.2126781333056,0.9873775711247317
669,300L_GN_2.0_6.0_25_225_trail_4/GS_45.75_GN_43_L_300_Trail_4_mirror.png,4,300,45.7495710997814,43,3.848709358882411,0.5255322139101704,49.060181116859816,1.4971125667680558,0.074854,0.002991364905858192,695.2126781333056,0.9873775711247317
670,300L_GN_2.0_6.0_25_225_trail_4/GS_45.75_GN_43_L_300_Trail_4_flip.png,4,300,45.7495710997814,43,3.848709358882411,0.5255322139101704,49.060181116859816,1.4971125667680558,0.074854,0.002991364905858192,695.2126781333056,0.9873775711247317
671,300L_GN_2.0_6.0_25_225_trail_4/GS_45.75_GN_43_L_300_Trail_4_mirror_flip.png,4,300,45.7495710997814,43,3.848709358882411,0.5255322139101704,49.060181116859816,1.4971125667680558,0.074854,0.002991364905858192,695.2126781333056,0.9873775711247317
672,300L_GN_2.0_6.0_25_225_trail_4/GS_45.227_GN_44_L_300_Trail_4_orig.png,4,300,45.22670168666454,44,3.53965194285331,0.21355828970257523,47.66061496918434,0.8504150223581705,0.07375600000000002,0.001522335048535634,692.9039412306777,1.187271915134934
673,300L_GN_2.0_6.0_25_225_trail_4/GS_45.227_GN_44_L_300_Trail_4_mirror.png,4,300,45.22670168666454,44,3.53965194285331,0.21355828970257523,47.66061496918434,0.8504150223581705,0.07375600000000002,0.001522335048535634,692.9039412306777,1.187271915134934
674,300L_GN_2.0_6.0_25_225_trail_4/GS_45.227_GN_44_L_300_Trail_4_flip.png,4,300,45.22670168666454,44,3.53965194285331,0.21355828970257523,47.66061496918434,0.8504150223581705,0.07375600000000002,0.001522335048535634,692.9039412306777,1.187271915134934
675,300L_GN_2.0_6.0_25_225_trail_4/GS_45.227_GN_44_L_300_Trail_4_mirror_flip.png,4,300,45.22670168666454,44,3.53965194285331,0.21355828970257523,47.66061496918434,0.8504150223581705,0.07375600000000002,0.001522335048535634,692.9039412306777,1.187271915134934
676,300L_GN_2.0_6.0_25_225_trail_4/GS_43.759_GN_47_L_300_Trail_4_orig.png,4,300,43.75949744936837,47,4.013613457965492,0.2701584881957008,51.96293991893742,0.3955839262419518,0.08102600000000001,0.0006551518907856413,691.5907851853443,0.9242610439112826
677,300L_GN_2.0_6.0_25_225_trail_4/GS_43.759_GN_47_L_300_Trail_4_mirror.png,4,300,43.75949744936837,47,4.013613457965492,0.2701584881957008,51.96293991893742,0.3955839262419518,0.08102600000000001,0.0006551518907856413,691.5907851853443,0.9242610439112826
678,300L_GN_2.0_6.0_25_225_trail_4/GS_43.759_GN_47_L_300_Trail_4_flip.png,4,300,43.75949744936837,47,4.013613457965492,0.2701584881957008,51.96293991893742,0.3955839262419518,0.08102600000000001,0.0006551518907856413,691.5907851853443,0.9242610439112826
679,300L_GN_2.0_6.0_25_225_trail_4/GS_43.759_GN_47_L_300_Trail_4_mirror_flip.png,4,300,43.75949744936837,47,4.013613457965492,0.2701584881957008,51.96293991893742,0.3955839262419518,0.08102600000000001,0.0006551518907856413,691.5907851853443,0.9242610439112826
680,300L_GN_2.0_6.0_25_225_trail_4/GS_43.301_GN_48_L_300_Trail_4_orig.png,4,300,43.30127018922194,48,4.086780694463621,0.6506449163736401,49.868201298504175,0.5372802113106618,0.075562,0.00087916778830892,697.6249782323566,1.5263668701357551
681,300L_GN_2.0_6.0_25_225_trail_4/GS_43.301_GN_48_L_300_Trail_4_mirror.png,4,300,43.30127018922194,48,4.086780694463621,0.6506449163736401,49.868201298504175,0.5372802113106618,0.075562,0.00087916778830892,697.6249782323566,1.5263668701357551
682,300L_GN_2.0_6.0_25_225_trail_4/GS_43.301_GN_48_L_300_Trail_4_flip.png,4,300,43.30127018922194,48,4.086780694463621,0.6506449163736401,49.868201298504175,0.5372802113106618,0.075562,0.00087916778830892,697.6249782323566,1.5263668701357551
683,300L_GN_2.0_6.0_25_225_trail_4/GS_43.301_GN_48_L_300_Trail_4_mirror_flip.png,4,300,43.30127018922194,48,4.086780694463621,0.6506449163736401,49.868201298504175,0.5372802113106618,0.075562,0.00087916778830892,697.6249782323566,1.5263668701357551
684,300L_GN_2.0_6.0_25_225_trail_4/GS_42.426_GN_50_L_300_Trail_4_orig.png,4,300,42.42640687119285,50,4.353021415282372,0.22555902623127463,52.314964870869424,0.46640388792859266,0.07958200000000001,0.0008951960679091491,692.31536760824,0.7811884656128871
685,300L_GN_2.0_6.0_25_225_trail_4/GS_42.426_GN_50_L_300_Trail_4_mirror.png,4,300,42.42640687119285,50,4.353021415282372,0.22555902623127463,52.314964870869424,0.46640388792859266,0.07958200000000001,0.0008951960679091491,692.31536760824,0.7811884656128871
686,300L_GN_2.0_6.0_25_225_trail_4/GS_42.426_GN_50_L_300_Trail_4_flip.png,4,300,42.42640687119285,50,4.353021415282372,0.22555902623127463,52.314964870869424,0.46640388792859266,0.07958200000000001,0.0008951960679091491,692.31536760824,0.7811884656128871
687,300L_GN_2.0_6.0_25_225_trail_4/GS_42.426_GN_50_L_300_Trail_4_mirror_flip.png,4,300,42.42640687119285,50,4.353021415282372,0.22555902623127463,52.314964870869424,0.46640388792859266,0.07958200000000001,0.0008951960679091491,692.31536760824,0.7811884656128871
688,300L_GN_2.0_6.0_25_225_trail_4/GS_41.603_GN_52_L_300_Trail_4_orig.png,4,300,41.60251471689219,52,4.100569443886437,0.22278026241188054,54.48220324984701,0.942128928482331,0.08376399999999999,0.0017151746266779989,701.142210145369,0.8050109507642702
689,300L_GN_2.0_6.0_25_225_trail_4/GS_41.603_GN_52_L_300_Trail_4_mirror.png,4,300,41.60251471689219,52,4.100569443886437,0.22278026241188054,54.48220324984701,0.942128928482331,0.08376399999999999,0.0017151746266779989,701.142210145369,0.8050109507642702
690,300L_GN_2.0_6.0_25_225_trail_4/GS_41.603_GN_52_L_300_Trail_4_flip.png,4,300,41.60251471689219,52,4.100569443886437,0.22278026241188054,54.48220324984701,0.942128928482331,0.08376399999999999,0.0017151746266779989,701.142210145369,0.8050109507642702
691,300L_GN_2.0_6.0_25_225_trail_4/GS_41.603_GN_52_L_300_Trail_4_mirror_flip.png,4,300,41.60251471689219,52,4.100569443886437,0.22278026241188054,54.48220324984701,0.942128928482331,0.08376399999999999,0.0017151746266779989,701.142210145369,0.8050109507642702
692,300L_GN_2.0_6.0_25_225_trail_4/GS_41.208_GN_53_L_300_Trail_4_orig.png,4,300,41.20816918460671,53,3.6470788065281177,0.3842274543334755,52.178415081771064,1.7624894381641962,0.079976,0.003669864302668426,696.161379451119,0.5228497557378488
693,300L_GN_2.0_6.0_25_225_trail_4/GS_41.208_GN_53_L_300_Trail_4_mirror.png,4,300,41.20816918460671,53,3.6470788065281177,0.3842274543334755,52.178415081771064,1.7624894381641962,0.079976,0.003669864302668426,696.161379451119,0.5228497557378488
694,300L_GN_2.0_6.0_25_225_trail_4/GS_41.208_GN_53_L_300_Trail_4_flip.png,4,300,41.20816918460671,53,3.6470788065281177,0.3842274543334755,52.178415081771064,1.7624894381641962,0.079976,0.003669864302668426,696.161379451119,0.5228497557378488
695,300L_GN_2.0_6.0_25_225_trail_4/GS_41.208_GN_53_L_300_Trail_4_mirror_flip.png,4,300,41.20816918460671,53,3.6470788065281177,0.3842274543334755,52.178415081771064,1.7624894381641962,0.079976,0.003669864302668426,696.161379451119,0.5228497557378488
696,300L_GN_2.0_6.0_25_225_trail_4/GS_40.089_GN_56_L_300_Trail_4_orig.png,4,300,40.08918628686366,56,3.5886706193927247,0.16622631071906796,50.642773426724354,1.8967542832780229,0.07824800000000001,0.0029266595292244055,691.2784991851088,1.6782364117388828
697,300L_GN_2.0_6.0_25_225_trail_4/GS_40.089_GN_56_L_300_Trail_4_mirror.png,4,300,40.08918628686366,56,3.5886706193927247,0.16622631071906796,50.642773426724354,1.8967542832780229,0.07824800000000001,0.0029266595292244055,691.2784991851088,1.6782364117388828
698,300L_GN_2.0_6.0_25_225_trail_4/GS_40.089_GN_56_L_300_Trail_4_flip.png,4,300,40.08918628686366,56,3.5886706193927247,0.16622631071906796,50.642773426724354,1.8967542832780229,0.07824800000000001,0.0029266595292244055,691.2784991851088,1.6782364117388828
699,300L_GN_2.0_6.0_25_225_trail_4/GS_40.089_GN_56_L_300_Trail_4_mirror_flip.png,4,300,40.08918628686366,56,3.5886706193927247,0.16622631071906796,50.642773426724354,1.8967542832780229,0.07824800000000001,0.0029266595292244055,691.2784991851088,1.6782364117388828
700,300L_GN_2.0_6.0_25_225_trail_4/GS_39.392_GN_58_L_300_Trail_4_orig.png,4,300,39.391929857916764,58,4.140543493527399,0.34694411426598615,47.93906454129971,0.5818435743884971,0.075322,0.0009921774034919362,678.3795765168904,1.2773927923138753
701,300L_GN_2.0_6.0_25_225_trail_4/GS_39.392_GN_58_L_300_Trail_4_mirror.png,4,300,39.391929857916764,58,4.140543493527399,0.34694411426598615,47.93906454129971,0.5818435743884971,0.075322,0.0009921774034919362,678.3795765168904,1.2773927923138753
702,300L_GN_2.0_6.0_25_225_trail_4/GS_39.392_GN_58_L_300_Trail_4_flip.png,4,300,39.391929857916764,58,4.140543493527399,0.34694411426598615,47.93906454129971,0.5818435743884971,0.075322,0.0009921774034919362,678.3795765168904,1.2773927923138753
703,300L_GN_2.0_6.0_25_225_trail_4/GS_39.392_GN_58_L_300_Trail_4_mirror_flip.png,4,300,39.391929857916764,58,4.140543493527399,0.34694411426598615,47.93906454129971,0.5818435743884971,0.075322,0.0009921774034919362,678.3795765168904,1.2773927923138753
704,300L_GN_2.0_6.0_25_225_trail_4/GS_38.73_GN_60_L_300_Trail_4_orig.png,4,300,38.72983346207417,60,4.037842806097083,0.3684451655224698,51.542954385244435,1.1727352892018403,0.078834,0.002073948890402076,692.418353296411,1.027213557141823
705,300L_GN_2.0_6.0_25_225_trail_4/GS_38.73_GN_60_L_300_Trail_4_mirror.png,4,300,38.72983346207417,60,4.037842806097083,0.3684451655224698,51.542954385244435,1.1727352892018403,0.078834,0.002073948890402076,692.418353296411,1.027213557141823
706,300L_GN_2.0_6.0_25_225_trail_4/GS_38.73_GN_60_L_300_Trail_4_flip.png,4,300,38.72983346207417,60,4.037842806097083,0.3684451655224698,51.542954385244435,1.1727352892018403,0.078834,0.002073948890402076,692.418353296411,1.027213557141823
707,300L_GN_2.0_6.0_25_225_trail_4/GS_38.73_GN_60_L_300_Trail_4_mirror_flip.png,4,300,38.72983346207417,60,4.037842806097083,0.3684451655224698,51.542954385244435,1.1727352892018403,0.078834,0.002073948890402076,692.418353296411,1.027213557141823
708,300L_GN_2.0_6.0_25_225_trail_4/GS_38.1_GN_62_L_300_Trail_4_orig.png,4,300,38.10003810005715,62,3.9456445578353034,0.5896215930534624,52.125960336125026,0.6569716432522037,0.08056800000000001,0.0014826921460640435,693.3296490775967,1.6244199986825139
709,300L_GN_2.0_6.0_25_225_trail_4/GS_38.1_GN_62_L_300_Trail_4_mirror.png,4,300,38.10003810005715,62,3.9456445578353034,0.5896215930534624,52.125960336125026,0.6569716432522037,0.08056800000000001,0.0014826921460640435,693.3296490775967,1.6244199986825139
710,300L_GN_2.0_6.0_25_225_trail_4/GS_38.1_GN_62_L_300_Trail_4_flip.png,4,300,38.10003810005715,62,3.9456445578353034,0.5896215930534624,52.125960336125026,0.6569716432522037,0.08056800000000001,0.0014826921460640435,693.3296490775967,1.6244199986825139
711,300L_GN_2.0_6.0_25_225_trail_4/GS_38.1_GN_62_L_300_Trail_4_mirror_flip.png,4,300,38.10003810005715,62,3.9456445578353034,0.5896215930534624,52.125960336125026,0.6569716432522037,0.08056800000000001,0.0014826921460640435,693.3296490775967,1.6244199986825139
712,300L_GN_2.0_6.0_25_225_trail_4/GS_37.5_GN_64_L_300_Trail_4_orig.png,4,300,37.5,64,3.943107238201992,0.6310450752414986,55.13040206757959,0.970400675614094,0.08775000000000001,0.0016260012300118322,668.8383241303773,1.4192025528827303
713,300L_GN_2.0_6.0_25_225_trail_4/GS_37.5_GN_64_L_300_Trail_4_mirror.png,4,300,37.5,64,3.943107238201992,0.6310450752414986,55.13040206757959,0.970400675614094,0.08775000000000001,0.0016260012300118322,668.8383241303773,1.4192025528827303
714,300L_GN_2.0_6.0_25_225_trail_4/GS_37.5_GN_64_L_300_Trail_4_flip.png,4,300,37.5,64,3.943107238201992,0.6310450752414986,55.13040206757959,0.970400675614094,0.08775000000000001,0.0016260012300118322,668.8383241303773,1.4192025528827303
715,300L_GN_2.0_6.0_25_225_trail_4/GS_37.5_GN_64_L_300_Trail_4_mirror_flip.png,4,300,37.5,64,3.943107238201992,0.6310450752414986,55.13040206757959,0.970400675614094,0.08775000000000001,0.0016260012300118322,668.8383241303773,1.4192025528827303
716,300L_GN_2.0_6.0_25_225_trail_4/GS_36.927_GN_66_L_300_Trail_4_orig.png,4,300,36.927447293799815,66,4.3084655908013145,0.9276949986642489,53.633398387929205,1.084812215329674,0.084384,0.0019932144892108325,682.2686655178061,1.4987053130242
717,300L_GN_2.0_6.0_25_225_trail_4/GS_36.927_GN_66_L_300_Trail_4_mirror.png,4,300,36.927447293799815,66,4.3084655908013145,0.9276949986642489,53.633398387929205,1.084812215329674,0.084384,0.0019932144892108325,682.2686655178061,1.4987053130242
718,300L_GN_2.0_6.0_25_225_trail_4/GS_36.927_GN_66_L_300_Trail_4_flip.png,4,300,36.927447293799815,66,4.3084655908013145,0.9276949986642489,53.633398387929205,1.084812215329674,0.084384,0.0019932144892108325,682.2686655178061,1.4987053130242
719,300L_GN_2.0_6.0_25_225_trail_4/GS_36.927_GN_66_L_300_Trail_4_mirror_flip.png,4,300,36.927447293799815,66,4.3084655908013145,0.9276949986642489,53.633398387929205,1.084812215329674,0.084384,0.0019932144892108325,682.2686655178061,1.4987053130242
720,300L_GN_2.0_6.0_25_225_trail_4/GS_36.116_GN_69_L_300_Trail_4_orig.png,4,300,36.11575592573076,69,4.020935761149218,0.5745207630450876,49.30897356794041,1.828199030826655,0.07693,0.002665025328209849,681.5918592868939,1.6669153566684525
721,300L_GN_2.0_6.0_25_225_trail_4/GS_36.116_GN_69_L_300_Trail_4_mirror.png,4,300,36.11575592573076,69,4.020935761149218,0.5745207630450876,49.30897356794041,1.828199030826655,0.07693,0.002665025328209849,681.5918592868939,1.6669153566684525
722,300L_GN_2.0_6.0_25_225_trail_4/GS_36.116_GN_69_L_300_Trail_4_flip.png,4,300,36.11575592573076,69,4.020935761149218,0.5745207630450876,49.30897356794041,1.828199030826655,0.07693,0.002665025328209849,681.5918592868939,1.6669153566684525
723,300L_GN_2.0_6.0_25_225_trail_4/GS_36.116_GN_69_L_300_Trail_4_mirror_flip.png,4,300,36.11575592573076,69,4.020935761149218,0.5745207630450876,49.30897356794041,1.828199030826655,0.07693,0.002665025328209849,681.5918592868939,1.6669153566684525
724,300L_GN_2.0_6.0_25_225_trail_4/GS_34.874_GN_74_L_300_Trail_4_orig.png,4,300,34.87429162314579,74,4.348904128017321,0.30920391354642013,47.722840526816896,1.7834319512461487,0.07864600000000002,0.00320179074894035,656.5044909014857,0.6103590419682288
725,300L_GN_2.0_6.0_25_225_trail_4/GS_34.874_GN_74_L_300_Trail_4_mirror.png,4,300,34.87429162314579,74,4.348904128017321,0.30920391354642013,47.722840526816896,1.7834319512461487,0.07864600000000002,0.00320179074894035,656.5044909014857,0.6103590419682288
726,300L_GN_2.0_6.0_25_225_trail_4/GS_34.874_GN_74_L_300_Trail_4_flip.png,4,300,34.87429162314579,74,4.348904128017321,0.30920391354642013,47.722840526816896,1.7834319512461487,0.07864600000000002,0.00320179074894035,656.5044909014857,0.6103590419682288
727,300L_GN_2.0_6.0_25_225_trail_4/GS_34.874_GN_74_L_300_Trail_4_mirror_flip.png,4,300,34.87429162314579,74,4.348904128017321,0.30920391354642013,47.722840526816896,1.7834319512461487,0.07864600000000002,0.00320179074894035,656.5044909014857,0.6103590419682288
728,300L_GN_2.0_6.0_25_225_trail_4/GS_33.968_GN_78_L_300_Trail_4_orig.png,4,300,33.96831102433787,78,4.191688032066685,0.11408746890067059,46.603429141522625,0.618047326742886,0.07463600000000001,0.0012315128907161327,674.0140614033832,0.8394827596750574
729,300L_GN_2.0_6.0_25_225_trail_4/GS_33.968_GN_78_L_300_Trail_4_mirror.png,4,300,33.96831102433787,78,4.191688032066685,0.11408746890067059,46.603429141522625,0.618047326742886,0.07463600000000001,0.0012315128907161327,674.0140614033832,0.8394827596750574
730,300L_GN_2.0_6.0_25_225_trail_4/GS_33.968_GN_78_L_300_Trail_4_flip.png,4,300,33.96831102433787,78,4.191688032066685,0.11408746890067059,46.603429141522625,0.618047326742886,0.07463600000000001,0.0012315128907161327,674.0140614033832,0.8394827596750574
731,300L_GN_2.0_6.0_25_225_trail_4/GS_33.968_GN_78_L_300_Trail_4_mirror_flip.png,4,300,33.96831102433787,78,4.191688032066685,0.11408746890067059,46.603429141522625,0.618047326742886,0.07463600000000001,0.0012315128907161327,674.0140614033832,0.8394827596750574
732,300L_GN_2.0_6.0_25_225_trail_4/GS_33.129_GN_82_L_300_Trail_4_orig.png,4,300,33.12945782245396,82,4.63788559043682,0.310151464750238,48.148870385378004,0.7756606794300492,0.078398,0.0018877224372242866,647.4610727432873,1.1435664335752793
733,300L_GN_2.0_6.0_25_225_trail_4/GS_33.129_GN_82_L_300_Trail_4_mirror.png,4,300,33.12945782245396,82,4.63788559043682,0.310151464750238,48.148870385378004,0.7756606794300492,0.078398,0.0018877224372242866,647.4610727432873,1.1435664335752793
734,300L_GN_2.0_6.0_25_225_trail_4/GS_33.129_GN_82_L_300_Trail_4_flip.png,4,300,33.12945782245396,82,4.63788559043682,0.310151464750238,48.148870385378004,0.7756606794300492,0.078398,0.0018877224372242866,647.4610727432873,1.1435664335752793
735,300L_GN_2.0_6.0_25_225_trail_4/GS_33.129_GN_82_L_300_Trail_4_mirror_flip.png,4,300,33.12945782245396,82,4.63788559043682,0.310151464750238,48.148870385378004,0.7756606794300492,0.078398,0.0018877224372242866,647.4610727432873,1.1435664335752793
736,300L_GN_2.0_6.0_25_225_trail_4/GS_32.163_GN_87_L_300_Trail_4_orig.png,4,300,32.163376045133845,87,3.5596047176253727,0.2738262005105393,41.435040929508986,1.1972457166278843,0.066276,0.0018045342889510278,659.246461835837,0.5573600270710664
737,300L_GN_2.0_6.0_25_225_trail_4/GS_32.163_GN_87_L_300_Trail_4_mirror.png,4,300,32.163376045133845,87,3.5596047176253727,0.2738262005105393,41.435040929508986,1.1972457166278843,0.066276,0.0018045342889510278,659.246461835837,0.5573600270710664
738,300L_GN_2.0_6.0_25_225_trail_4/GS_32.163_GN_87_L_300_Trail_4_flip.png,4,300,32.163376045133845,87,3.5596047176253727,0.2738262005105393,41.435040929508986,1.1972457166278843,0.066276,0.0018045342889510278,659.246461835837,0.5573600270710664
739,300L_GN_2.0_6.0_25_225_trail_4/GS_32.163_GN_87_L_300_Trail_4_mirror_flip.png,4,300,32.163376045133845,87,3.5596047176253727,0.2738262005105393,41.435040929508986,1.1972457166278843,0.066276,0.0018045342889510278,659.246461835837,0.5573600270710664
740,300L_GN_2.0_6.0_25_225_trail_4/GS_31.449_GN_91_L_300_Trail_4_orig.png,4,300,31.44854510165755,91,3.9706026036142235,0.2915650895860721,51.517693554520065,1.4569181166226488,0.08181000000000001,0.0024563387388550437,667.7708324724649,1.7499358235659432
741,300L_GN_2.0_6.0_25_225_trail_4/GS_31.449_GN_91_L_300_Trail_4_mirror.png,4,300,31.44854510165755,91,3.9706026036142235,0.2915650895860721,51.517693554520065,1.4569181166226488,0.08181000000000001,0.0024563387388550437,667.7708324724649,1.7499358235659432
742,300L_GN_2.0_6.0_25_225_trail_4/GS_31.449_GN_91_L_300_Trail_4_flip.png,4,300,31.44854510165755,91,3.9706026036142235,0.2915650895860721,51.517693554520065,1.4569181166226488,0.08181000000000001,0.0024563387388550437,667.7708324724649,1.7499358235659432
743,300L_GN_2.0_6.0_25_225_trail_4/GS_31.449_GN_91_L_300_Trail_4_mirror_flip.png,4,300,31.44854510165755,91,3.9706026036142235,0.2915650895860721,51.517693554520065,1.4569181166226488,0.08181000000000001,0.0024563387388550437,667.7708324724649,1.7499358235659432
744,300L_GN_2.0_6.0_25_225_trail_4/GS_30.779_GN_95_L_300_Trail_4_orig.png,4,300,30.779350562554626,95,3.721157862279232,0.35116720765051695,47.65758723601905,1.5301845285685451,0.07977800000000002,0.003207724427066644,641.88800298922,0.5955164431080167
745,300L_GN_2.0_6.0_25_225_trail_4/GS_30.779_GN_95_L_300_Trail_4_mirror.png,4,300,30.779350562554626,95,3.721157862279232,0.35116720765051695,47.65758723601905,1.5301845285685451,0.07977800000000002,0.003207724427066644,641.88800298922,0.5955164431080167
746,300L_GN_2.0_6.0_25_225_trail_4/GS_30.779_GN_95_L_300_Trail_4_flip.png,4,300,30.779350562554626,95,3.721157862279232,0.35116720765051695,47.65758723601905,1.5301845285685451,0.07977800000000002,0.003207724427066644,641.88800298922,0.5955164431080167
747,300L_GN_2.0_6.0_25_225_trail_4/GS_30.779_GN_95_L_300_Trail_4_mirror_flip.png,4,300,30.779350562554626,95,3.721157862279232,0.35116720765051695,47.65758723601905,1.5301845285685451,0.07977800000000002,0.003207724427066644,641.88800298922,0.5955164431080167
748,300L_GN_2.0_6.0_25_225_trail_4/GS_30.0_GN_100_L_300_Trail_4_orig.png,4,300,30.0,100,4.580459870279297,0.20257868692208636,46.775392857413,1.448763257254742,0.076166,0.0025444024838849706,650.1962729508673,1.0056593857245157
749,300L_GN_2.0_6.0_25_225_trail_4/GS_30.0_GN_100_L_300_Trail_4_mirror.png,4,300,30.0,100,4.580459870279297,0.20257868692208636,46.775392857413,1.448763257254742,0.076166,0.0025444024838849706,650.1962729508673,1.0056593857245157
750,300L_GN_2.0_6.0_25_225_trail_4/GS_30.0_GN_100_L_300_Trail_4_flip.png,4,300,30.0,100,4.580459870279297,0.20257868692208636,46.775392857413,1.448763257254742,0.076166,0.0025444024838849706,650.1962729508673,1.0056593857245157
751,300L_GN_2.0_6.0_25_225_trail_4/GS_30.0_GN_100_L_300_Trail_4_mirror_flip.png,4,300,30.0,100,4.580459870279297,0.20257868692208636,46.775392857413,1.448763257254742,0.076166,0.0025444024838849706,650.1962729508673,1.0056593857245157
752,300L_GN_2.0_6.0_25_225_trail_4/GS_29.139_GN_106_L_300_Trail_4_orig.png,4,300,29.138575870717926,106,4.326458786444638,0.33605694455270524,49.57077063639584,0.6266026919601354,0.080072,0.0012275080447801557,653.0614146776716,1.7710069801992774
753,300L_GN_2.0_6.0_25_225_trail_4/GS_29.139_GN_106_L_300_Trail_4_mirror.png,4,300,29.138575870717926,106,4.326458786444638,0.33605694455270524,49.57077063639584,0.6266026919601354,0.080072,0.0012275080447801557,653.0614146776716,1.7710069801992774
754,300L_GN_2.0_6.0_25_225_trail_4/GS_29.139_GN_106_L_300_Trail_4_flip.png,4,300,29.138575870717926,106,4.326458786444638,0.33605694455270524,49.57077063639584,0.6266026919601354,0.080072,0.0012275080447801557,653.0614146776716,1.7710069801992774
755,300L_GN_2.0_6.0_25_225_trail_4/GS_29.139_GN_106_L_300_Trail_4_mirror_flip.png,4,300,29.138575870717926,106,4.326458786444638,0.33605694455270524,49.57077063639584,0.6266026919601354,0.080072,0.0012275080447801557,653.0614146776716,1.7710069801992774
756,300L_GN_2.0_6.0_25_225_trail_4/GS_28.347_GN_112_L_300_Trail_4_orig.png,4,300,28.34733547569204,112,3.4803846567989303,0.1926861752774134,47.367394200743526,0.45404806776796086,0.077292,0.0009964215975178392,657.3841534963643,1.6689955794430889
757,300L_GN_2.0_6.0_25_225_trail_4/GS_28.347_GN_112_L_300_Trail_4_mirror.png,4,300,28.34733547569204,112,3.4803846567989303,0.1926861752774134,47.367394200743526,0.45404806776796086,0.077292,0.0009964215975178392,657.3841534963643,1.6689955794430889
758,300L_GN_2.0_6.0_25_225_trail_4/GS_28.347_GN_112_L_300_Trail_4_flip.png,4,300,28.34733547569204,112,3.4803846567989303,0.1926861752774134,47.367394200743526,0.45404806776796086,0.077292,0.0009964215975178392,657.3841534963643,1.6689955794430889
759,300L_GN_2.0_6.0_25_225_trail_4/GS_28.347_GN_112_L_300_Trail_4_mirror_flip.png,4,300,28.34733547569204,112,3.4803846567989303,0.1926861752774134,47.367394200743526,0.45404806776796086,0.077292,0.0009964215975178392,657.3841534963643,1.6689955794430889
760,300L_GN_2.0_6.0_25_225_trail_4/GS_27.501_GN_119_L_300_Trail_4_orig.png,4,300,27.50095491084634,119,3.2168383984422393,0.14019072258991702,46.26085069454384,1.489212033847789,0.07336000000000001,0.0021028076469330236,652.8962683416088,1.303780575518869
761,300L_GN_2.0_6.0_25_225_trail_4/GS_27.501_GN_119_L_300_Trail_4_mirror.png,4,300,27.50095491084634,119,3.2168383984422393,0.14019072258991702,46.26085069454384,1.489212033847789,0.07336000000000001,0.0021028076469330236,652.8962683416088,1.303780575518869
762,300L_GN_2.0_6.0_25_225_trail_4/GS_27.501_GN_119_L_300_Trail_4_flip.png,4,300,27.50095491084634,119,3.2168383984422393,0.14019072258991702,46.26085069454384,1.489212033847789,0.07336000000000001,0.0021028076469330236,652.8962683416088,1.303780575518869
763,300L_GN_2.0_6.0_25_225_trail_4/GS_27.501_GN_119_L_300_Trail_4_mirror_flip.png,4,300,27.50095491084634,119,3.2168383984422393,0.14019072258991702,46.26085069454384,1.489212033847789,0.07336000000000001,0.0021028076469330236,652.8962683416088,1.303780575518869
764,300L_GN_2.0_6.0_25_225_trail_4/GS_26.726_GN_126_L_300_Trail_4_orig.png,4,300,26.726124191242437,126,3.5986365654132557,0.5709676128903052,52.40227303502203,1.140389367505564,0.08605600000000001,0.0017736470900379245,636.1067811282354,1.5453220767000837
765,300L_GN_2.0_6.0_25_225_trail_4/GS_26.726_GN_126_L_300_Trail_4_mirror.png,4,300,26.726124191242437,126,3.5986365654132557,0.5709676128903052,52.40227303502203,1.140389367505564,0.08605600000000001,0.0017736470900379245,636.1067811282354,1.5453220767000837
766,300L_GN_2.0_6.0_25_225_trail_4/GS_26.726_GN_126_L_300_Trail_4_flip.png,4,300,26.726124191242437,126,3.5986365654132557,0.5709676128903052,52.40227303502203,1.140389367505564,0.08605600000000001,0.0017736470900379245,636.1067811282354,1.5453220767000837
767,300L_GN_2.0_6.0_25_225_trail_4/GS_26.726_GN_126_L_300_Trail_4_mirror_flip.png,4,300,26.726124191242437,126,3.5986365654132557,0.5709676128903052,52.40227303502203,1.140389367505564,0.08605600000000001,0.0017736470900379245,636.1067811282354,1.5453220767000837
768,300L_GN_2.0_6.0_25_225_trail_4/GS_26.112_GN_132_L_300_Trail_4_orig.png,4,300,26.111648393354677,132,5.332141753337592,0.34132045714574905,48.082460914982946,0.8086766479095345,0.076596,0.0012183529866175936,661.8173646750394,1.8484825806954588
769,300L_GN_2.0_6.0_25_225_trail_4/GS_26.112_GN_132_L_300_Trail_4_mirror.png,4,300,26.111648393354677,132,5.332141753337592,0.34132045714574905,48.082460914982946,0.8086766479095345,0.076596,0.0012183529866175936,661.8173646750394,1.8484825806954588
770,300L_GN_2.0_6.0_25_225_trail_4/GS_26.112_GN_132_L_300_Trail_4_flip.png,4,300,26.111648393354677,132,5.332141753337592,0.34132045714574905,48.082460914982946,0.8086766479095345,0.076596,0.0012183529866175936,661.8173646750394,1.8484825806954588
771,300L_GN_2.0_6.0_25_225_trail_4/GS_26.112_GN_132_L_300_Trail_4_mirror_flip.png,4,300,26.111648393354677,132,5.332141753337592,0.34132045714574905,48.082460914982946,0.8086766479095345,0.076596,0.0012183529866175936,661.8173646750394,1.8484825806954588
772,300L_GN_2.0_6.0_25_225_trail_4/GS_25.0_GN_144_L_300_Trail_4_orig.png,4,300,25.0,144,3.4735542823344394,0.33676688686040246,52.223673830026925,0.9934739763115081,0.08436600000000001,0.001888296586874003,651.265725636268,1.606313691691013
773,300L_GN_2.0_6.0_25_225_trail_4/GS_25.0_GN_144_L_300_Trail_4_mirror.png,4,300,25.0,144,3.4735542823344394,0.33676688686040246,52.223673830026925,0.9934739763115081,0.08436600000000001,0.001888296586874003,651.265725636268,1.606313691691013
774,300L_GN_2.0_6.0_25_225_trail_4/GS_25.0_GN_144_L_300_Trail_4_flip.png,4,300,25.0,144,3.4735542823344394,0.33676688686040246,52.223673830026925,0.9934739763115081,0.08436600000000001,0.001888296586874003,651.265725636268,1.606313691691013
775,300L_GN_2.0_6.0_25_225_trail_4/GS_25.0_GN_144_L_300_Trail_4_mirror_flip.png,4,300,25.0,144,3.4735542823344394,0.33676688686040246,52.223673830026925,0.9934739763115081,0.08436600000000001,0.001888296586874003,651.265725636268,1.606313691691013
776,300L_GN_2.0_6.0_25_225_trail_4/GS_24.333_GN_152_L_300_Trail_4_orig.png,4,300,24.333213169614382,152,3.6452567286221758,0.2949902233401152,43.748483568865026,0.5996404823686461,0.06943000000000002,0.0011287692412534993,658.5860942615043,1.920134245446643
777,300L_GN_2.0_6.0_25_225_trail_4/GS_24.333_GN_152_L_300_Trail_4_mirror.png,4,300,24.333213169614382,152,3.6452567286221758,0.2949902233401152,43.748483568865026,0.5996404823686461,0.06943000000000002,0.0011287692412534993,658.5860942615043,1.920134245446643
778,300L_GN_2.0_6.0_25_225_trail_4/GS_24.333_GN_152_L_300_Trail_4_flip.png,4,300,24.333213169614382,152,3.6452567286221758,0.2949902233401152,43.748483568865026,0.5996404823686461,0.06943000000000002,0.0011287692412534993,658.5860942615043,1.920134245446643
779,300L_GN_2.0_6.0_25_225_trail_4/GS_24.333_GN_152_L_300_Trail_4_mirror_flip.png,4,300,24.333213169614382,152,3.6452567286221758,0.2949902233401152,43.748483568865026,0.5996404823686461,0.06943000000000002,0.0011287692412534993,658.5860942615043,1.920134245446643
780,300L_GN_2.0_6.0_25_225_trail_4/GS_23.717_GN_160_L_300_Trail_4_orig.png,4,300,23.717082451262844,160,3.345757195646854,0.4256415951114232,44.37750515591618,0.5816254167097927,0.07109000000000001,0.0009004887561763324,650.8007892733874,0.997287193968392
781,300L_GN_2.0_6.0_25_225_trail_4/GS_23.717_GN_160_L_300_Trail_4_mirror.png,4,300,23.717082451262844,160,3.345757195646854,0.4256415951114232,44.37750515591618,0.5816254167097927,0.07109000000000001,0.0009004887561763324,650.8007892733874,0.997287193968392
782,300L_GN_2.0_6.0_25_225_trail_4/GS_23.717_GN_160_L_300_Trail_4_flip.png,4,300,23.717082451262844,160,3.345757195646854,0.4256415951114232,44.37750515591618,0.5816254167097927,0.07109000000000001,0.0009004887561763324,650.8007892733874,0.997287193968392
783,300L_GN_2.0_6.0_25_225_trail_4/GS_23.717_GN_160_L_300_Trail_4_mirror_flip.png,4,300,23.717082451262844,160,3.345757195646854,0.4256415951114232,44.37750515591618,0.5816254167097927,0.07109000000000001,0.0009004887561763324,650.8007892733874,0.997287193968392
784,300L_GN_2.0_6.0_25_225_trail_4/GS_23.146_GN_168_L_300_Trail_4_orig.png,4,300,23.145502494313785,168,4.330963919266728,0.24365523461729535,47.024570654302785,0.44322829294838456,0.077934,0.0014370330545954762,637.4889059024965,1.2258930779001294
785,300L_GN_2.0_6.0_25_225_trail_4/GS_23.146_GN_168_L_300_Trail_4_mirror.png,4,300,23.145502494313785,168,4.330963919266728,0.24365523461729535,47.024570654302785,0.44322829294838456,0.077934,0.0014370330545954762,637.4889059024965,1.2258930779001294
786,300L_GN_2.0_6.0_25_225_trail_4/GS_23.146_GN_168_L_300_Trail_4_flip.png,4,300,23.145502494313785,168,4.330963919266728,0.24365523461729535,47.024570654302785,0.44322829294838456,0.077934,0.0014370330545954762,637.4889059024965,1.2258930779001294
787,300L_GN_2.0_6.0_25_225_trail_4/GS_23.146_GN_168_L_300_Trail_4_mirror_flip.png,4,300,23.145502494313785,168,4.330963919266728,0.24365523461729535,47.024570654302785,0.44322829294838456,0.077934,0.0014370330545954762,637.4889059024965,1.2258930779001294
788,300L_GN_2.0_6.0_25_225_trail_4/GS_22.486_GN_178_L_300_Trail_4_orig.png,4,300,22.48595066987584,178,3.1537769069733863,0.35809652292818733,43.4687828190412,1.0804894121102595,0.07038000000000001,0.0017249811593174058,635.656589265961,1.3798815600836674
789,300L_GN_2.0_6.0_25_225_trail_4/GS_22.486_GN_178_L_300_Trail_4_mirror.png,4,300,22.48595066987584,178,3.1537769069733863,0.35809652292818733,43.4687828190412,1.0804894121102595,0.07038000000000001,0.0017249811593174058,635.656589265961,1.3798815600836674
790,300L_GN_2.0_6.0_25_225_trail_4/GS_22.486_GN_178_L_300_Trail_4_flip.png,4,300,22.48595066987584,178,3.1537769069733863,0.35809652292818733,43.4687828190412,1.0804894121102595,0.07038000000000001,0.0017249811593174058,635.656589265961,1.3798815600836674
791,300L_GN_2.0_6.0_25_225_trail_4/GS_22.486_GN_178_L_300_Trail_4_mirror_flip.png,4,300,22.48595066987584,178,3.1537769069733863,0.35809652292818733,43.4687828190412,1.0804894121102595,0.07038000000000001,0.0017249811593174058,635.656589265961,1.3798815600836674
792,300L_GN_2.0_6.0_25_225_trail_4/GS_21.213_GN_200_L_300_Trail_4_orig.png,4,300,21.213203435596427,200,3.682294465569817,0.4240856314470897,46.81360555393487,0.5394955678903426,0.076532,0.0007482887143342467,640.1395459519092,1.5954852747627253
793,300L_GN_2.0_6.0_25_225_trail_4/GS_21.213_GN_200_L_300_Trail_4_mirror.png,4,300,21.213203435596427,200,3.682294465569817,0.4240856314470897,46.81360555393487,0.5394955678903426,0.076532,0.0007482887143342467,640.1395459519092,1.5954852747627253
794,300L_GN_2.0_6.0_25_225_trail_4/GS_21.213_GN_200_L_300_Trail_4_flip.png,4,300,21.213203435596427,200,3.682294465569817,0.4240856314470897,46.81360555393487,0.5394955678903426,0.076532,0.0007482887143342467,640.1395459519092,1.5954852747627253
795,300L_GN_2.0_6.0_25_225_trail_4/GS_21.213_GN_200_L_300_Trail_4_mirror_flip.png,4,300,21.213203435596427,200,3.682294465569817,0.4240856314470897,46.81360555393487,0.5394955678903426,0.076532,0.0007482887143342467,640.1395459519092,1.5954852747627253
796,300L_GN_2.0_6.0_25_225_trail_4/GS_20.0_GN_225_L_300_Trail_4_orig.png,4,300,20.0,225,3.021491734890141,0.18908473584257254,45.65185935747083,0.9232159083971907,0.076756,0.0014783044341406786,616.2094820443551,2.118192741200143
797,300L_GN_2.0_6.0_25_225_trail_4/GS_20.0_GN_225_L_300_Trail_4_mirror.png,4,300,20.0,225,3.021491734890141,0.18908473584257254,45.65185935747083,0.9232159083971907,0.076756,0.0014783044341406786,616.2094820443551,2.118192741200143
798,300L_GN_2.0_6.0_25_225_trail_4/GS_20.0_GN_225_L_300_Trail_4_flip.png,4,300,20.0,225,3.021491734890141,0.18908473584257254,45.65185935747083,0.9232159083971907,0.076756,0.0014783044341406786,616.2094820443551,2.118192741200143
799,300L_GN_2.0_6.0_25_225_trail_4/GS_20.0_GN_225_L_300_Trail_4_mirror_flip.png,4,300,20.0,225,3.021491734890141,0.18908473584257254,45.65185935747083,0.9232159083971907,0.076756,0.0014783044341406786,616.2094820443551,2.118192741200143
800,300L_GN_2.0_6.0_25_225_trail_5/GS_60.0_GN_25_L_300_Trail_5_orig.png,5,300,60.0,25,4.155199927134534,0.332133948764532,51.886713659437376,0.5667404905557368,0.078808,0.0008355932024615788,717.115964779978,1.805621464116421
801,300L_GN_2.0_6.0_25_225_trail_5/GS_60.0_GN_25_L_300_Trail_5_mirror.png,5,300,60.0,25,4.155199927134534,0.332133948764532,51.886713659437376,0.5667404905557368,0.078808,0.0008355932024615788,717.115964779978,1.805621464116421
802,300L_GN_2.0_6.0_25_225_trail_5/GS_60.0_GN_25_L_300_Trail_5_flip.png,5,300,60.0,25,4.155199927134534,0.332133948764532,51.886713659437376,0.5667404905557368,0.078808,0.0008355932024615788,717.115964779978,1.805621464116421
803,300L_GN_2.0_6.0_25_225_trail_5/GS_60.0_GN_25_L_300_Trail_5_mirror_flip.png,5,300,60.0,25,4.155199927134534,0.332133948764532,51.886713659437376,0.5667404905557368,0.078808,0.0008355932024615788,717.115964779978,1.805621464116421
804,300L_GN_2.0_6.0_25_225_trail_5/GS_58.835_GN_26_L_300_Trail_5_orig.png,5,300,58.834840541455215,26,4.829997358222572,0.17385492004101766,54.33173254887358,1.0486482717416483,0.08103,0.0015806201314673939,719.035121338583,1.1510875981630309
805,300L_GN_2.0_6.0_25_225_trail_5/GS_58.835_GN_26_L_300_Trail_5_mirror.png,5,300,58.834840541455215,26,4.829997358222572,0.17385492004101766,54.33173254887358,1.0486482717416483,0.08103,0.0015806201314673939,719.035121338583,1.1510875981630309
806,300L_GN_2.0_6.0_25_225_trail_5/GS_58.835_GN_26_L_300_Trail_5_flip.png,5,300,58.834840541455215,26,4.829997358222572,0.17385492004101766,54.33173254887358,1.0486482717416483,0.08103,0.0015806201314673939,719.035121338583,1.1510875981630309
807,300L_GN_2.0_6.0_25_225_trail_5/GS_58.835_GN_26_L_300_Trail_5_mirror_flip.png,5,300,58.834840541455215,26,4.829997358222572,0.17385492004101766,54.33173254887358,1.0486482717416483,0.08103,0.0015806201314673939,719.035121338583,1.1510875981630309
808,300L_GN_2.0_6.0_25_225_trail_5/GS_57.735_GN_27_L_300_Trail_5_orig.png,5,300,57.735026918962575,27,5.248866903092099,0.4822641202303612,57.266983584836474,0.5418929100941948,0.08735400000000001,0.0007324370280099169,721.2534712183822,2.427561057682793
809,300L_GN_2.0_6.0_25_225_trail_5/GS_57.735_GN_27_L_300_Trail_5_mirror.png,5,300,57.735026918962575,27,5.248866903092099,0.4822641202303612,57.266983584836474,0.5418929100941948,0.08735400000000001,0.0007324370280099169,721.2534712183822,2.427561057682793
810,300L_GN_2.0_6.0_25_225_trail_5/GS_57.735_GN_27_L_300_Trail_5_flip.png,5,300,57.735026918962575,27,5.248866903092099,0.4822641202303612,57.266983584836474,0.5418929100941948,0.08735400000000001,0.0007324370280099169,721.2534712183822,2.427561057682793
811,300L_GN_2.0_6.0_25_225_trail_5/GS_57.735_GN_27_L_300_Trail_5_mirror_flip.png,5,300,57.735026918962575,27,5.248866903092099,0.4822641202303612,57.266983584836474,0.5418929100941948,0.08735400000000001,0.0007324370280099169,721.2534712183822,2.427561057682793
812,300L_GN_2.0_6.0_25_225_trail_5/GS_56.695_GN_28_L_300_Trail_5_orig.png,5,300,56.69467095138408,28,4.24538507005,0.28436196797986885,53.46951849219804,0.5535958904384451,0.079494,0.0008479764147663573,723.6496183793508,1.3281236332031126
813,300L_GN_2.0_6.0_25_225_trail_5/GS_56.695_GN_28_L_300_Trail_5_mirror.png,5,300,56.69467095138408,28,4.24538507005,0.28436196797986885,53.46951849219804,0.5535958904384451,0.079494,0.0008479764147663573,723.6496183793508,1.3281236332031126
814,300L_GN_2.0_6.0_25_225_trail_5/GS_56.695_GN_28_L_300_Trail_5_flip.png,5,300,56.69467095138408,28,4.24538507005,0.28436196797986885,53.46951849219804,0.5535958904384451,0.079494,0.0008479764147663573,723.6496183793508,1.3281236332031126
815,300L_GN_2.0_6.0_25_225_trail_5/GS_56.695_GN_28_L_300_Trail_5_mirror_flip.png,5,300,56.69467095138408,28,4.24538507005,0.28436196797986885,53.46951849219804,0.5535958904384451,0.079494,0.0008479764147663573,723.6496183793508,1.3281236332031126
816,300L_GN_2.0_6.0_25_225_trail_5/GS_55.709_GN_29_L_300_Trail_5_orig.png,5,300,55.70860145311556,29,4.7113690456097554,0.34682320748224454,50.70951194937687,0.5864106992711821,0.075778,0.0010602905262238247,719.6334414037797,1.431087496625363
817,300L_GN_2.0_6.0_25_225_trail_5/GS_55.709_GN_29_L_300_Trail_5_mirror.png,5,300,55.70860145311556,29,4.7113690456097554,0.34682320748224454,50.70951194937687,0.5864106992711821,0.075778,0.0010602905262238247,719.6334414037797,1.431087496625363
818,300L_GN_2.0_6.0_25_225_trail_5/GS_55.709_GN_29_L_300_Trail_5_flip.png,5,300,55.70860145311556,29,4.7113690456097554,0.34682320748224454,50.70951194937687,0.5864106992711821,0.075778,0.0010602905262238247,719.6334414037797,1.431087496625363
819,300L_GN_2.0_6.0_25_225_trail_5/GS_55.709_GN_29_L_300_Trail_5_mirror_flip.png,5,300,55.70860145311556,29,4.7113690456097554,0.34682320748224454,50.70951194937687,0.5864106992711821,0.075778,0.0010602905262238247,719.6334414037797,1.431087496625363
820,300L_GN_2.0_6.0_25_225_trail_5/GS_54.772_GN_30_L_300_Trail_5_orig.png,5,300,54.772255750516614,30,3.9134800366862947,0.7356597137077695,52.67952406192713,1.7620688103509694,0.08047,0.002365518970543248,700.4170638377084,0.6883922432395334
821,300L_GN_2.0_6.0_25_225_trail_5/GS_54.772_GN_30_L_300_Trail_5_mirror.png,5,300,54.772255750516614,30,3.9134800366862947,0.7356597137077695,52.67952406192713,1.7620688103509694,0.08047,0.002365518970543248,700.4170638377084,0.6883922432395334
822,300L_GN_2.0_6.0_25_225_trail_5/GS_54.772_GN_30_L_300_Trail_5_flip.png,5,300,54.772255750516614,30,3.9134800366862947,0.7356597137077695,52.67952406192713,1.7620688103509694,0.08047,0.002365518970543248,700.4170638377084,0.6883922432395334
823,300L_GN_2.0_6.0_25_225_trail_5/GS_54.772_GN_30_L_300_Trail_5_mirror_flip.png,5,300,54.772255750516614,30,3.9134800366862947,0.7356597137077695,52.67952406192713,1.7620688103509694,0.08047,0.002365518970543248,700.4170638377084,0.6883922432395334
824,300L_GN_2.0_6.0_25_225_trail_5/GS_53.882_GN_31_L_300_Trail_5_orig.png,5,300,53.881590608032475,31,4.432337226250432,0.5750027098763684,58.82969362070929,0.5971840237506081,0.088602,0.000992439418806002,716.0599804856857,1.565280398531757
825,300L_GN_2.0_6.0_25_225_trail_5/GS_53.882_GN_31_L_300_Trail_5_mirror.png,5,300,53.881590608032475,31,4.432337226250432,0.5750027098763684,58.82969362070929,0.5971840237506081,0.088602,0.000992439418806002,716.0599804856857,1.565280398531757
826,300L_GN_2.0_6.0_25_225_trail_5/GS_53.882_GN_31_L_300_Trail_5_flip.png,5,300,53.881590608032475,31,4.432337226250432,0.5750027098763684,58.82969362070929,0.5971840237506081,0.088602,0.000992439418806002,716.0599804856857,1.565280398531757
827,300L_GN_2.0_6.0_25_225_trail_5/GS_53.882_GN_31_L_300_Trail_5_mirror_flip.png,5,300,53.881590608032475,31,4.432337226250432,0.5750027098763684,58.82969362070929,0.5971840237506081,0.088602,0.000992439418806002,716.0599804856857,1.565280398531757
828,300L_GN_2.0_6.0_25_225_trail_5/GS_53.033_GN_32_L_300_Trail_5_orig.png,5,300,53.03300858899106,32,4.890053782386127,0.44447555776751724,56.986515366837,0.5378553034834561,0.08542000000000001,0.0007888726132906386,721.6708070863064,0.9036447294439485
829,300L_GN_2.0_6.0_25_225_trail_5/GS_53.033_GN_32_L_300_Trail_5_mirror.png,5,300,53.03300858899106,32,4.890053782386127,0.44447555776751724,56.986515366837,0.5378553034834561,0.08542000000000001,0.0007888726132906386,721.6708070863064,0.9036447294439485
830,300L_GN_2.0_6.0_25_225_trail_5/GS_53.033_GN_32_L_300_Trail_5_flip.png,5,300,53.03300858899106,32,4.890053782386127,0.44447555776751724,56.986515366837,0.5378553034834561,0.08542000000000001,0.0007888726132906386,721.6708070863064,0.9036447294439485
831,300L_GN_2.0_6.0_25_225_trail_5/GS_53.033_GN_32_L_300_Trail_5_mirror_flip.png,5,300,53.03300858899106,32,4.890053782386127,0.44447555776751724,56.986515366837,0.5378553034834561,0.08542000000000001,0.0007888726132906386,721.6708070863064,0.9036447294439485
832,300L_GN_2.0_6.0_25_225_trail_5/GS_52.223_GN_33_L_300_Trail_5_orig.png,5,300,52.223296786709355,33,3.2412799083718666,0.6107808479397137,54.557760240269545,0.6567960816972792,0.08159000000000001,0.0012553724546922303,713.595528082178,0.3622708375649649
833,300L_GN_2.0_6.0_25_225_trail_5/GS_52.223_GN_33_L_300_Trail_5_mirror.png,5,300,52.223296786709355,33,3.2412799083718666,0.6107808479397137,54.557760240269545,0.6567960816972792,0.08159000000000001,0.0012553724546922303,713.595528082178,0.3622708375649649
834,300L_GN_2.0_6.0_25_225_trail_5/GS_52.223_GN_33_L_300_Trail_5_flip.png,5,300,52.223296786709355,33,3.2412799083718666,0.6107808479397137,54.557760240269545,0.6567960816972792,0.08159000000000001,0.0012553724546922303,713.595528082178,0.3622708375649649
835,300L_GN_2.0_6.0_25_225_trail_5/GS_52.223_GN_33_L_300_Trail_5_mirror_flip.png,5,300,52.223296786709355,33,3.2412799083718666,0.6107808479397137,54.557760240269545,0.6567960816972792,0.08159000000000001,0.0012553724546922303,713.595528082178,0.3622708375649649
836,300L_GN_2.0_6.0_25_225_trail_5/GS_51.45_GN_34_L_300_Trail_5_orig.png,5,300,51.44957554275265,34,4.729402120949788,0.4556675462305183,55.32748519956359,0.9834625317787332,0.085624,0.001852723400834565,711.3798709550205,0.8197344440318399
837,300L_GN_2.0_6.0_25_225_trail_5/GS_51.45_GN_34_L_300_Trail_5_mirror.png,5,300,51.44957554275265,34,4.729402120949788,0.4556675462305183,55.32748519956359,0.9834625317787332,0.085624,0.001852723400834565,711.3798709550205,0.8197344440318399
838,300L_GN_2.0_6.0_25_225_trail_5/GS_51.45_GN_34_L_300_Trail_5_flip.png,5,300,51.44957554275265,34,4.729402120949788,0.4556675462305183,55.32748519956359,0.9834625317787332,0.085624,0.001852723400834565,711.3798709550205,0.8197344440318399
839,300L_GN_2.0_6.0_25_225_trail_5/GS_51.45_GN_34_L_300_Trail_5_mirror_flip.png,5,300,51.44957554275265,34,4.729402120949788,0.4556675462305183,55.32748519956359,0.9834625317787332,0.085624,0.001852723400834565,711.3798709550205,0.8197344440318399
840,300L_GN_2.0_6.0_25_225_trail_5/GS_50.709_GN_35_L_300_Trail_5_orig.png,5,300,50.709255283710995,35,2.874297983019768,0.3787934297605677,55.743978938876275,0.5203963961818354,0.08448800000000001,0.0009055252619336495,710.0139856573714,1.558802036150197
841,300L_GN_2.0_6.0_25_225_trail_5/GS_50.709_GN_35_L_300_Trail_5_mirror.png,5,300,50.709255283710995,35,2.874297983019768,0.3787934297605677,55.743978938876275,0.5203963961818354,0.08448800000000001,0.0009055252619336495,710.0139856573714,1.558802036150197
842,300L_GN_2.0_6.0_25_225_trail_5/GS_50.709_GN_35_L_300_Trail_5_flip.png,5,300,50.709255283710995,35,2.874297983019768,0.3787934297605677,55.743978938876275,0.5203963961818354,0.08448800000000001,0.0009055252619336495,710.0139856573714,1.558802036150197
843,300L_GN_2.0_6.0_25_225_trail_5/GS_50.709_GN_35_L_300_Trail_5_mirror_flip.png,5,300,50.709255283710995,35,2.874297983019768,0.3787934297605677,55.743978938876275,0.5203963961818354,0.08448800000000001,0.0009055252619336495,710.0139856573714,1.558802036150197
844,300L_GN_2.0_6.0_25_225_trail_5/GS_50.0_GN_36_L_300_Trail_5_orig.png,5,300,50.0,36,4.116962166731448,0.3004747802246623,51.22739413772268,1.0517575310310199,0.07824800000000001,0.0019011722699429426,705.4914791723016,2.444531184255049
845,300L_GN_2.0_6.0_25_225_trail_5/GS_50.0_GN_36_L_300_Trail_5_mirror.png,5,300,50.0,36,4.116962166731448,0.3004747802246623,51.22739413772268,1.0517575310310199,0.07824800000000001,0.0019011722699429426,705.4914791723016,2.444531184255049
846,300L_GN_2.0_6.0_25_225_trail_5/GS_50.0_GN_36_L_300_Trail_5_flip.png,5,300,50.0,36,4.116962166731448,0.3004747802246623,51.22739413772268,1.0517575310310199,0.07824800000000001,0.0019011722699429426,705.4914791723016,2.444531184255049
847,300L_GN_2.0_6.0_25_225_trail_5/GS_50.0_GN_36_L_300_Trail_5_mirror_flip.png,5,300,50.0,36,4.116962166731448,0.3004747802246623,51.22739413772268,1.0517575310310199,0.07824800000000001,0.0019011722699429426,705.4914791723016,2.444531184255049
848,300L_GN_2.0_6.0_25_225_trail_5/GS_49.32_GN_37_L_300_Trail_5_orig.png,5,300,49.31969619160719,37,3.313112255143973,0.24826240551432238,48.2521396017816,0.8411327105787816,0.073048,0.0012028699015271768,711.7647767665627,0.6111037231032408
849,300L_GN_2.0_6.0_25_225_trail_5/GS_49.32_GN_37_L_300_Trail_5_mirror.png,5,300,49.31969619160719,37,3.313112255143973,0.24826240551432238,48.2521396017816,0.8411327105787816,0.073048,0.0012028699015271768,711.7647767665627,0.6111037231032408
850,300L_GN_2.0_6.0_25_225_trail_5/GS_49.32_GN_37_L_300_Trail_5_flip.png,5,300,49.31969619160719,37,3.313112255143973,0.24826240551432238,48.2521396017816,0.8411327105787816,0.073048,0.0012028699015271768,711.7647767665627,0.6111037231032408
851,300L_GN_2.0_6.0_25_225_trail_5/GS_49.32_GN_37_L_300_Trail_5_mirror_flip.png,5,300,49.31969619160719,37,3.313112255143973,0.24826240551432238,48.2521396017816,0.8411327105787816,0.073048,0.0012028699015271768,711.7647767665627,0.6111037231032408
852,300L_GN_2.0_6.0_25_225_trail_5/GS_48.666_GN_38_L_300_Trail_5_orig.png,5,300,48.666426339228764,38,4.248952352768118,0.21139817579754697,51.20700861106637,1.1483471420551186,0.07526400000000001,0.0017372345840444227,718.4915645688592,1.642089554256823
853,300L_GN_2.0_6.0_25_225_trail_5/GS_48.666_GN_38_L_300_Trail_5_mirror.png,5,300,48.666426339228764,38,4.248952352768118,0.21139817579754697,51.20700861106637,1.1483471420551186,0.07526400000000001,0.0017372345840444227,718.4915645688592,1.642089554256823
854,300L_GN_2.0_6.0_25_225_trail_5/GS_48.666_GN_38_L_300_Trail_5_flip.png,5,300,48.666426339228764,38,4.248952352768118,0.21139817579754697,51.20700861106637,1.1483471420551186,0.07526400000000001,0.0017372345840444227,718.4915645688592,1.642089554256823
855,300L_GN_2.0_6.0_25_225_trail_5/GS_48.666_GN_38_L_300_Trail_5_mirror_flip.png,5,300,48.666426339228764,38,4.248952352768118,0.21139817579754697,51.20700861106637,1.1483471420551186,0.07526400000000001,0.0017372345840444227,718.4915645688592,1.642089554256823
856,300L_GN_2.0_6.0_25_225_trail_5/GS_48.038_GN_39_L_300_Trail_5_orig.png,5,300,48.03844614152614,39,4.796910466168619,0.4291060590643131,52.08104870781093,1.3400031367859777,0.081066,0.0027528792200167468,696.5948230191423,1.4797410533672652
857,300L_GN_2.0_6.0_25_225_trail_5/GS_48.038_GN_39_L_300_Trail_5_mirror.png,5,300,48.03844614152614,39,4.796910466168619,0.4291060590643131,52.08104870781093,1.3400031367859777,0.081066,0.0027528792200167468,696.5948230191423,1.4797410533672652
858,300L_GN_2.0_6.0_25_225_trail_5/GS_48.038_GN_39_L_300_Trail_5_flip.png,5,300,48.03844614152614,39,4.796910466168619,0.4291060590643131,52.08104870781093,1.3400031367859777,0.081066,0.0027528792200167468,696.5948230191423,1.4797410533672652
859,300L_GN_2.0_6.0_25_225_trail_5/GS_48.038_GN_39_L_300_Trail_5_mirror_flip.png,5,300,48.03844614152614,39,4.796910466168619,0.4291060590643131,52.08104870781093,1.3400031367859777,0.081066,0.0027528792200167468,696.5948230191423,1.4797410533672652
860,300L_GN_2.0_6.0_25_225_trail_5/GS_47.434_GN_40_L_300_Trail_5_orig.png,5,300,47.43416490252569,40,4.432586653871128,0.9481978634563357,55.16729586365195,0.7043152325129354,0.082946,0.0013185385849492578,712.7794995534175,1.291609784631991
861,300L_GN_2.0_6.0_25_225_trail_5/GS_47.434_GN_40_L_300_Trail_5_mirror.png,5,300,47.43416490252569,40,4.432586653871128,0.9481978634563357,55.16729586365195,0.7043152325129354,0.082946,0.0013185385849492578,712.7794995534175,1.291609784631991
862,300L_GN_2.0_6.0_25_225_trail_5/GS_47.434_GN_40_L_300_Trail_5_flip.png,5,300,47.43416490252569,40,4.432586653871128,0.9481978634563357,55.16729586365195,0.7043152325129354,0.082946,0.0013185385849492578,712.7794995534175,1.291609784631991
863,300L_GN_2.0_6.0_25_225_trail_5/GS_47.434_GN_40_L_300_Trail_5_mirror_flip.png,5,300,47.43416490252569,40,4.432586653871128,0.9481978634563357,55.16729586365195,0.7043152325129354,0.082946,0.0013185385849492578,712.7794995534175,1.291609784631991
864,300L_GN_2.0_6.0_25_225_trail_5/GS_46.852_GN_41_L_300_Trail_5_orig.png,5,300,46.85212856658182,41,3.8921857661140478,0.47382883059738323,55.24729294717751,0.4501319423001759,0.08719600000000002,0.0008385606716272846,691.2352837148685,1.6133156230613368
865,300L_GN_2.0_6.0_25_225_trail_5/GS_46.852_GN_41_L_300_Trail_5_mirror.png,5,300,46.85212856658182,41,3.8921857661140478,0.47382883059738323,55.24729294717751,0.4501319423001759,0.08719600000000002,0.0008385606716272846,691.2352837148685,1.6133156230613368
866,300L_GN_2.0_6.0_25_225_trail_5/GS_46.852_GN_41_L_300_Trail_5_flip.png,5,300,46.85212856658182,41,3.8921857661140478,0.47382883059738323,55.24729294717751,0.4501319423001759,0.08719600000000002,0.0008385606716272846,691.2352837148685,1.6133156230613368
867,300L_GN_2.0_6.0_25_225_trail_5/GS_46.852_GN_41_L_300_Trail_5_mirror_flip.png,5,300,46.85212856658182,41,3.8921857661140478,0.47382883059738323,55.24729294717751,0.4501319423001759,0.08719600000000002,0.0008385606716272846,691.2352837148685,1.6133156230613368
868,300L_GN_2.0_6.0_25_225_trail_5/GS_45.75_GN_43_L_300_Trail_5_orig.png,5,300,45.7495710997814,43,4.003195297141039,0.17243994847982982,53.09251674777249,1.5348645971024588,0.08034400000000001,0.0026385799210939228,710.4405964289898,1.0532798302352742
869,300L_GN_2.0_6.0_25_225_trail_5/GS_45.75_GN_43_L_300_Trail_5_mirror.png,5,300,45.7495710997814,43,4.003195297141039,0.17243994847982982,53.09251674777249,1.5348645971024588,0.08034400000000001,0.0026385799210939228,710.4405964289898,1.0532798302352742
870,300L_GN_2.0_6.0_25_225_trail_5/GS_45.75_GN_43_L_300_Trail_5_flip.png,5,300,45.7495710997814,43,4.003195297141039,0.17243994847982982,53.09251674777249,1.5348645971024588,0.08034400000000001,0.0026385799210939228,710.4405964289898,1.0532798302352742
871,300L_GN_2.0_6.0_25_225_trail_5/GS_45.75_GN_43_L_300_Trail_5_mirror_flip.png,5,300,45.7495710997814,43,4.003195297141039,0.17243994847982982,53.09251674777249,1.5348645971024588,0.08034400000000001,0.0026385799210939228,710.4405964289898,1.0532798302352742
872,300L_GN_2.0_6.0_25_225_trail_5/GS_45.227_GN_44_L_300_Trail_5_orig.png,5,300,45.22670168666454,44,3.496471908237337,0.21056043435357058,51.471017771616246,0.8432699227408509,0.078454,0.001438563172057453,696.8942991315305,1.3736459362316922
873,300L_GN_2.0_6.0_25_225_trail_5/GS_45.227_GN_44_L_300_Trail_5_mirror.png,5,300,45.22670168666454,44,3.496471908237337,0.21056043435357058,51.471017771616246,0.8432699227408509,0.078454,0.001438563172057453,696.8942991315305,1.3736459362316922
874,300L_GN_2.0_6.0_25_225_trail_5/GS_45.227_GN_44_L_300_Trail_5_flip.png,5,300,45.22670168666454,44,3.496471908237337,0.21056043435357058,51.471017771616246,0.8432699227408509,0.078454,0.001438563172057453,696.8942991315305,1.3736459362316922
875,300L_GN_2.0_6.0_25_225_trail_5/GS_45.227_GN_44_L_300_Trail_5_mirror_flip.png,5,300,45.22670168666454,44,3.496471908237337,0.21056043435357058,51.471017771616246,0.8432699227408509,0.078454,0.001438563172057453,696.8942991315305,1.3736459362316922
876,300L_GN_2.0_6.0_25_225_trail_5/GS_43.759_GN_47_L_300_Trail_5_orig.png,5,300,43.75949744936837,47,4.644708479869773,0.28874889102124446,47.38186624435554,0.6815794752044007,0.07265400000000002,0.0010911388545918445,697.2942140174031,1.6369509707000538
877,300L_GN_2.0_6.0_25_225_trail_5/GS_43.759_GN_47_L_300_Trail_5_mirror.png,5,300,43.75949744936837,47,4.644708479869773,0.28874889102124446,47.38186624435554,0.6815794752044007,0.07265400000000002,0.0010911388545918445,697.2942140174031,1.6369509707000538
878,300L_GN_2.0_6.0_25_225_trail_5/GS_43.759_GN_47_L_300_Trail_5_flip.png,5,300,43.75949744936837,47,4.644708479869773,0.28874889102124446,47.38186624435554,0.6815794752044007,0.07265400000000002,0.0010911388545918445,697.2942140174031,1.6369509707000538
879,300L_GN_2.0_6.0_25_225_trail_5/GS_43.759_GN_47_L_300_Trail_5_mirror_flip.png,5,300,43.75949744936837,47,4.644708479869773,0.28874889102124446,47.38186624435554,0.6815794752044007,0.07265400000000002,0.0010911388545918445,697.2942140174031,1.6369509707000538
880,300L_GN_2.0_6.0_25_225_trail_5/GS_43.301_GN_48_L_300_Trail_5_orig.png,5,300,43.30127018922194,48,4.713203759149198,0.2658084991959926,54.555560186182355,0.7694234776665284,0.085624,0.0013231114843428695,689.3162251945771,1.3023071059037281
881,300L_GN_2.0_6.0_25_225_trail_5/GS_43.301_GN_48_L_300_Trail_5_mirror.png,5,300,43.30127018922194,48,4.713203759149198,0.2658084991959926,54.555560186182355,0.7694234776665284,0.085624,0.0013231114843428695,689.3162251945771,1.3023071059037281
882,300L_GN_2.0_6.0_25_225_trail_5/GS_43.301_GN_48_L_300_Trail_5_flip.png,5,300,43.30127018922194,48,4.713203759149198,0.2658084991959926,54.555560186182355,0.7694234776665284,0.085624,0.0013231114843428695,689.3162251945771,1.3023071059037281
883,300L_GN_2.0_6.0_25_225_trail_5/GS_43.301_GN_48_L_300_Trail_5_mirror_flip.png,5,300,43.30127018922194,48,4.713203759149198,0.2658084991959926,54.555560186182355,0.7694234776665284,0.085624,0.0013231114843428695,689.3162251945771,1.3023071059037281
884,300L_GN_2.0_6.0_25_225_trail_5/GS_42.426_GN_50_L_300_Trail_5_orig.png,5,300,42.42640687119285,50,3.7268400984196774,0.5587634129555937,54.037641295837055,0.9157336408548121,0.08222199999999999,0.0016391754024508796,702.9485549289747,1.0765499277439519
885,300L_GN_2.0_6.0_25_225_trail_5/GS_42.426_GN_50_L_300_Trail_5_mirror.png,5,300,42.42640687119285,50,3.7268400984196774,0.5587634129555937,54.037641295837055,0.9157336408548121,0.08222199999999999,0.0016391754024508796,702.9485549289747,1.0765499277439519
886,300L_GN_2.0_6.0_25_225_trail_5/GS_42.426_GN_50_L_300_Trail_5_flip.png,5,300,42.42640687119285,50,3.7268400984196774,0.5587634129555937,54.037641295837055,0.9157336408548121,0.08222199999999999,0.0016391754024508796,702.9485549289747,1.0765499277439519
887,300L_GN_2.0_6.0_25_225_trail_5/GS_42.426_GN_50_L_300_Trail_5_mirror_flip.png,5,300,42.42640687119285,50,3.7268400984196774,0.5587634129555937,54.037641295837055,0.9157336408548121,0.08222199999999999,0.0016391754024508796,702.9485549289747,1.0765499277439519
888,300L_GN_2.0_6.0_25_225_trail_5/GS_41.603_GN_52_L_300_Trail_5_orig.png,5,300,41.60251471689219,52,4.099929160112142,0.2782675558698228,52.99464606207334,1.2493317974455604,0.08347800000000001,0.002307911610092554,691.3839674722159,1.4594947972569239
889,300L_GN_2.0_6.0_25_225_trail_5/GS_41.603_GN_52_L_300_Trail_5_mirror.png,5,300,41.60251471689219,52,4.099929160112142,0.2782675558698228,52.99464606207334,1.2493317974455604,0.08347800000000001,0.002307911610092554,691.3839674722159,1.4594947972569239
890,300L_GN_2.0_6.0_25_225_trail_5/GS_41.603_GN_52_L_300_Trail_5_flip.png,5,300,41.60251471689219,52,4.099929160112142,0.2782675558698228,52.99464606207334,1.2493317974455604,0.08347800000000001,0.002307911610092554,691.3839674722159,1.4594947972569239
891,300L_GN_2.0_6.0_25_225_trail_5/GS_41.603_GN_52_L_300_Trail_5_mirror_flip.png,5,300,41.60251471689219,52,4.099929160112142,0.2782675558698228,52.99464606207334,1.2493317974455604,0.08347800000000001,0.002307911610092554,691.3839674722159,1.4594947972569239
892,300L_GN_2.0_6.0_25_225_trail_5/GS_41.208_GN_53_L_300_Trail_5_orig.png,5,300,41.20816918460671,53,5.004380355520143,0.5297019717696685,48.764509541536526,0.6303056200479916,0.07853,0.0014136053197409868,666.183635865447,2.562845545577961
893,300L_GN_2.0_6.0_25_225_trail_5/GS_41.208_GN_53_L_300_Trail_5_mirror.png,5,300,41.20816918460671,53,5.004380355520143,0.5297019717696685,48.764509541536526,0.6303056200479916,0.07853,0.0014136053197409868,666.183635865447,2.562845545577961
894,300L_GN_2.0_6.0_25_225_trail_5/GS_41.208_GN_53_L_300_Trail_5_flip.png,5,300,41.20816918460671,53,5.004380355520143,0.5297019717696685,48.764509541536526,0.6303056200479916,0.07853,0.0014136053197409868,666.183635865447,2.562845545577961
895,300L_GN_2.0_6.0_25_225_trail_5/GS_41.208_GN_53_L_300_Trail_5_mirror_flip.png,5,300,41.20816918460671,53,5.004380355520143,0.5297019717696685,48.764509541536526,0.6303056200479916,0.07853,0.0014136053197409868,666.183635865447,2.562845545577961
896,300L_GN_2.0_6.0_25_225_trail_5/GS_40.089_GN_56_L_300_Trail_5_orig.png,5,300,40.08918628686366,56,4.0782489614244195,1.465271924521967,51.982686875088675,1.0831056704652469,0.078958,0.001931107454286268,698.7201544041448,1.0086004728303386
897,300L_GN_2.0_6.0_25_225_trail_5/GS_40.089_GN_56_L_300_Trail_5_mirror.png,5,300,40.08918628686366,56,4.0782489614244195,1.465271924521967,51.982686875088675,1.0831056704652469,0.078958,0.001931107454286268,698.7201544041448,1.0086004728303386
898,300L_GN_2.0_6.0_25_225_trail_5/GS_40.089_GN_56_L_300_Trail_5_flip.png,5,300,40.08918628686366,56,4.0782489614244195,1.465271924521967,51.982686875088675,1.0831056704652469,0.078958,0.001931107454286268,698.7201544041448,1.0086004728303386
899,300L_GN_2.0_6.0_25_225_trail_5/GS_40.089_GN_56_L_300_Trail_5_mirror_flip.png,5,300,40.08918628686366,56,4.0782489614244195,1.465271924521967,51.982686875088675,1.0831056704652469,0.078958,0.001931107454286268,698.7201544041448,1.0086004728303386
900,300L_GN_2.0_6.0_25_225_trail_5/GS_39.392_GN_58_L_300_Trail_5_orig.png,5,300,39.391929857916764,58,3.5364121278006957,0.3405997289587835,50.4239314971747,0.3969249391864061,0.07745400000000001,0.0009879392693885579,695.657044007146,0.7702397545223982
901,300L_GN_2.0_6.0_25_225_trail_5/GS_39.392_GN_58_L_300_Trail_5_mirror.png,5,300,39.391929857916764,58,3.5364121278006957,0.3405997289587835,50.4239314971747,0.3969249391864061,0.07745400000000001,0.0009879392693885579,695.657044007146,0.7702397545223982
902,300L_GN_2.0_6.0_25_225_trail_5/GS_39.392_GN_58_L_300_Trail_5_flip.png,5,300,39.391929857916764,58,3.5364121278006957,0.3405997289587835,50.4239314971747,0.3969249391864061,0.07745400000000001,0.0009879392693885579,695.657044007146,0.7702397545223982
903,300L_GN_2.0_6.0_25_225_trail_5/GS_39.392_GN_58_L_300_Trail_5_mirror_flip.png,5,300,39.391929857916764,58,3.5364121278006957,0.3405997289587835,50.4239314971747,0.3969249391864061,0.07745400000000001,0.0009879392693885579,695.657044007146,0.7702397545223982
904,300L_GN_2.0_6.0_25_225_trail_5/GS_38.73_GN_60_L_300_Trail_5_orig.png,5,300,38.72983346207417,60,3.204040494397332,0.5071048075953755,48.96782225473296,1.0155281220129624,0.07531800000000001,0.0018511445108364713,687.9697476587503,1.3783403101383462
905,300L_GN_2.0_6.0_25_225_trail_5/GS_38.73_GN_60_L_300_Trail_5_mirror.png,5,300,38.72983346207417,60,3.204040494397332,0.5071048075953755,48.96782225473296,1.0155281220129624,0.07531800000000001,0.0018511445108364713,687.9697476587503,1.3783403101383462
906,300L_GN_2.0_6.0_25_225_trail_5/GS_38.73_GN_60_L_300_Trail_5_flip.png,5,300,38.72983346207417,60,3.204040494397332,0.5071048075953755,48.96782225473296,1.0155281220129624,0.07531800000000001,0.0018511445108364713,687.9697476587503,1.3783403101383462
907,300L_GN_2.0_6.0_25_225_trail_5/GS_38.73_GN_60_L_300_Trail_5_mirror_flip.png,5,300,38.72983346207417,60,3.204040494397332,0.5071048075953755,48.96782225473296,1.0155281220129624,0.07531800000000001,0.0018511445108364713,687.9697476587503,1.3783403101383462
908,300L_GN_2.0_6.0_25_225_trail_5/GS_38.1_GN_62_L_300_Trail_5_orig.png,5,300,38.10003810005715,62,3.320448945025234,0.43096225569556135,51.635165233844916,1.3538574482785886,0.080276,0.002682585320171571,685.2551405414945,1.0838763942852863
909,300L_GN_2.0_6.0_25_225_trail_5/GS_38.1_GN_62_L_300_Trail_5_mirror.png,5,300,38.10003810005715,62,3.320448945025234,0.43096225569556135,51.635165233844916,1.3538574482785886,0.080276,0.002682585320171571,685.2551405414945,1.0838763942852863
910,300L_GN_2.0_6.0_25_225_trail_5/GS_38.1_GN_62_L_300_Trail_5_flip.png,5,300,38.10003810005715,62,3.320448945025234,0.43096225569556135,51.635165233844916,1.3538574482785886,0.080276,0.002682585320171571,685.2551405414945,1.0838763942852863
911,300L_GN_2.0_6.0_25_225_trail_5/GS_38.1_GN_62_L_300_Trail_5_mirror_flip.png,5,300,38.10003810005715,62,3.320448945025234,0.43096225569556135,51.635165233844916,1.3538574482785886,0.080276,0.002682585320171571,685.2551405414945,1.0838763942852863
912,300L_GN_2.0_6.0_25_225_trail_5/GS_37.5_GN_64_L_300_Trail_5_orig.png,5,300,37.5,64,3.2356014381128078,0.3444971739968364,55.25241241563217,1.0662500636986396,0.08526600000000001,0.0017261471547930093,691.6954200767993,1.221211176920265
913,300L_GN_2.0_6.0_25_225_trail_5/GS_37.5_GN_64_L_300_Trail_5_mirror.png,5,300,37.5,64,3.2356014381128078,0.3444971739968364,55.25241241563217,1.0662500636986396,0.08526600000000001,0.0017261471547930093,691.6954200767993,1.221211176920265
914,300L_GN_2.0_6.0_25_225_trail_5/GS_37.5_GN_64_L_300_Trail_5_flip.png,5,300,37.5,64,3.2356014381128078,0.3444971739968364,55.25241241563217,1.0662500636986396,0.08526600000000001,0.0017261471547930093,691.6954200767993,1.221211176920265
915,300L_GN_2.0_6.0_25_225_trail_5/GS_37.5_GN_64_L_300_Trail_5_mirror_flip.png,5,300,37.5,64,3.2356014381128078,0.3444971739968364,55.25241241563217,1.0662500636986396,0.08526600000000001,0.0017261471547930093,691.6954200767993,1.221211176920265
916,300L_GN_2.0_6.0_25_225_trail_5/GS_36.927_GN_66_L_300_Trail_5_orig.png,5,300,36.927447293799815,66,3.993783246168148,0.28152388940499445,51.9858873084645,1.3117686703528468,0.0834,0.0010142386306979268,674.0575427890451,1.736770841980602
917,300L_GN_2.0_6.0_25_225_trail_5/GS_36.927_GN_66_L_300_Trail_5_mirror.png,5,300,36.927447293799815,66,3.993783246168148,0.28152388940499445,51.9858873084645,1.3117686703528468,0.0834,0.0010142386306979268,674.0575427890451,1.736770841980602
918,300L_GN_2.0_6.0_25_225_trail_5/GS_36.927_GN_66_L_300_Trail_5_flip.png,5,300,36.927447293799815,66,3.993783246168148,0.28152388940499445,51.9858873084645,1.3117686703528468,0.0834,0.0010142386306979268,674.0575427890451,1.736770841980602
919,300L_GN_2.0_6.0_25_225_trail_5/GS_36.927_GN_66_L_300_Trail_5_mirror_flip.png,5,300,36.927447293799815,66,3.993783246168148,0.28152388940499445,51.9858873084645,1.3117686703528468,0.0834,0.0010142386306979268,674.0575427890451,1.736770841980602
920,300L_GN_2.0_6.0_25_225_trail_5/GS_36.116_GN_69_L_300_Trail_5_orig.png,5,300,36.11575592573076,69,3.0667205482955,0.2747684799051884,50.32420264308562,0.6204939213607075,0.08181400000000001,0.0012475992946455192,660.2132340786137,1.0756197172770934
921,300L_GN_2.0_6.0_25_225_trail_5/GS_36.116_GN_69_L_300_Trail_5_mirror.png,5,300,36.11575592573076,69,3.0667205482955,0.2747684799051884,50.32420264308562,0.6204939213607075,0.08181400000000001,0.0012475992946455192,660.2132340786137,1.0756197172770934
922,300L_GN_2.0_6.0_25_225_trail_5/GS_36.116_GN_69_L_300_Trail_5_flip.png,5,300,36.11575592573076,69,3.0667205482955,0.2747684799051884,50.32420264308562,0.6204939213607075,0.08181400000000001,0.0012475992946455192,660.2132340786137,1.0756197172770934
923,300L_GN_2.0_6.0_25_225_trail_5/GS_36.116_GN_69_L_300_Trail_5_mirror_flip.png,5,300,36.11575592573076,69,3.0667205482955,0.2747684799051884,50.32420264308562,0.6204939213607075,0.08181400000000001,0.0012475992946455192,660.2132340786137,1.0756197172770934
924,300L_GN_2.0_6.0_25_225_trail_5/GS_34.874_GN_74_L_300_Trail_5_orig.png,5,300,34.87429162314579,74,3.807156770291301,0.21031468431068104,50.02867815389347,1.058463848287066,0.077956,0.0016014318593059183,688.3625740740964,1.2337220801857258
925,300L_GN_2.0_6.0_25_225_trail_5/GS_34.874_GN_74_L_300_Trail_5_mirror.png,5,300,34.87429162314579,74,3.807156770291301,0.21031468431068104,50.02867815389347,1.058463848287066,0.077956,0.0016014318593059183,688.3625740740964,1.2337220801857258
926,300L_GN_2.0_6.0_25_225_trail_5/GS_34.874_GN_74_L_300_Trail_5_flip.png,5,300,34.87429162314579,74,3.807156770291301,0.21031468431068104,50.02867815389347,1.058463848287066,0.077956,0.0016014318593059183,688.3625740740964,1.2337220801857258
927,300L_GN_2.0_6.0_25_225_trail_5/GS_34.874_GN_74_L_300_Trail_5_mirror_flip.png,5,300,34.87429162314579,74,3.807156770291301,0.21031468431068104,50.02867815389347,1.058463848287066,0.077956,0.0016014318593059183,688.3625740740964,1.2337220801857258
928,300L_GN_2.0_6.0_25_225_trail_5/GS_33.968_GN_78_L_300_Trail_5_orig.png,5,300,33.96831102433787,78,4.017087417995826,0.486338099584383,53.61441087838274,0.6063389829731737,0.08248000000000001,0.0009126883367283718,686.5542724278365,1.3398756924527833
929,300L_GN_2.0_6.0_25_225_trail_5/GS_33.968_GN_78_L_300_Trail_5_mirror.png,5,300,33.96831102433787,78,4.017087417995826,0.486338099584383,53.61441087838274,0.6063389829731737,0.08248000000000001,0.0009126883367283718,686.5542724278365,1.3398756924527833
930,300L_GN_2.0_6.0_25_225_trail_5/GS_33.968_GN_78_L_300_Trail_5_flip.png,5,300,33.96831102433787,78,4.017087417995826,0.486338099584383,53.61441087838274,0.6063389829731737,0.08248000000000001,0.0009126883367283718,686.5542724278365,1.3398756924527833
931,300L_GN_2.0_6.0_25_225_trail_5/GS_33.968_GN_78_L_300_Trail_5_mirror_flip.png,5,300,33.96831102433787,78,4.017087417995826,0.486338099584383,53.61441087838274,0.6063389829731737,0.08248000000000001,0.0009126883367283718,686.5542724278365,1.3398756924527833
932,300L_GN_2.0_6.0_25_225_trail_5/GS_33.129_GN_82_L_300_Trail_5_orig.png,5,300,33.12945782245396,82,3.467445607781388,0.2788880562354153,46.25757235211881,0.7570359992273449,0.07289799999999999,0.0007815727733231245,666.9369791870784,0.9753394206272602
933,300L_GN_2.0_6.0_25_225_trail_5/GS_33.129_GN_82_L_300_Trail_5_mirror.png,5,300,33.12945782245396,82,3.467445607781388,0.2788880562354153,46.25757235211881,0.7570359992273449,0.07289799999999999,0.0007815727733231245,666.9369791870784,0.9753394206272602
934,300L_GN_2.0_6.0_25_225_trail_5/GS_33.129_GN_82_L_300_Trail_5_flip.png,5,300,33.12945782245396,82,3.467445607781388,0.2788880562354153,46.25757235211881,0.7570359992273449,0.07289799999999999,0.0007815727733231245,666.9369791870784,0.9753394206272602
935,300L_GN_2.0_6.0_25_225_trail_5/GS_33.129_GN_82_L_300_Trail_5_mirror_flip.png,5,300,33.12945782245396,82,3.467445607781388,0.2788880562354153,46.25757235211881,0.7570359992273449,0.07289799999999999,0.0007815727733231245,666.9369791870784,0.9753394206272602
936,300L_GN_2.0_6.0_25_225_trail_5/GS_32.163_GN_87_L_300_Trail_5_orig.png,5,300,32.163376045133845,87,4.413883213486125,0.18214140442373422,49.828820494222605,0.26493739739144745,0.08164600000000001,0.000682366470454109,645.3696569658154,1.4882490438405267
937,300L_GN_2.0_6.0_25_225_trail_5/GS_32.163_GN_87_L_300_Trail_5_mirror.png,5,300,32.163376045133845,87,4.413883213486125,0.18214140442373422,49.828820494222605,0.26493739739144745,0.08164600000000001,0.000682366470454109,645.3696569658154,1.4882490438405267
938,300L_GN_2.0_6.0_25_225_trail_5/GS_32.163_GN_87_L_300_Trail_5_flip.png,5,300,32.163376045133845,87,4.413883213486125,0.18214140442373422,49.828820494222605,0.26493739739144745,0.08164600000000001,0.000682366470454109,645.3696569658154,1.4882490438405267
939,300L_GN_2.0_6.0_25_225_trail_5/GS_32.163_GN_87_L_300_Trail_5_mirror_flip.png,5,300,32.163376045133845,87,4.413883213486125,0.18214140442373422,49.828820494222605,0.26493739739144745,0.08164600000000001,0.000682366470454109,645.3696569658154,1.4882490438405267
940,300L_GN_2.0_6.0_25_225_trail_5/GS_31.449_GN_91_L_300_Trail_5_orig.png,5,300,31.44854510165755,91,4.348539833384554,0.3796729579906345,48.897684192126874,0.6462009718982237,0.079504,0.0012157730051288375,664.319383856845,1.4651926571933678
941,300L_GN_2.0_6.0_25_225_trail_5/GS_31.449_GN_91_L_300_Trail_5_mirror.png,5,300,31.44854510165755,91,4.348539833384554,0.3796729579906345,48.897684192126874,0.6462009718982237,0.079504,0.0012157730051288375,664.319383856845,1.4651926571933678
942,300L_GN_2.0_6.0_25_225_trail_5/GS_31.449_GN_91_L_300_Trail_5_flip.png,5,300,31.44854510165755,91,4.348539833384554,0.3796729579906345,48.897684192126874,0.6462009718982237,0.079504,0.0012157730051288375,664.319383856845,1.4651926571933678
943,300L_GN_2.0_6.0_25_225_trail_5/GS_31.449_GN_91_L_300_Trail_5_mirror_flip.png,5,300,31.44854510165755,91,4.348539833384554,0.3796729579906345,48.897684192126874,0.6462009718982237,0.079504,0.0012157730051288375,664.319383856845,1.4651926571933678
944,300L_GN_2.0_6.0_25_225_trail_5/GS_30.779_GN_95_L_300_Trail_5_orig.png,5,300,30.779350562554626,95,3.7865315626791682,0.3778586320799506,47.5278510665989,0.4099176183830858,0.07391400000000001,0.0006769519923894216,672.2054194023946,2.056624817031057
945,300L_GN_2.0_6.0_25_225_trail_5/GS_30.779_GN_95_L_300_Trail_5_mirror.png,5,300,30.779350562554626,95,3.7865315626791682,0.3778586320799506,47.5278510665989,0.4099176183830858,0.07391400000000001,0.0006769519923894216,672.2054194023946,2.056624817031057
946,300L_GN_2.0_6.0_25_225_trail_5/GS_30.779_GN_95_L_300_Trail_5_flip.png,5,300,30.779350562554626,95,3.7865315626791682,0.3778586320799506,47.5278510665989,0.4099176183830858,0.07391400000000001,0.0006769519923894216,672.2054194023946,2.056624817031057
947,300L_GN_2.0_6.0_25_225_trail_5/GS_30.779_GN_95_L_300_Trail_5_mirror_flip.png,5,300,30.779350562554626,95,3.7865315626791682,0.3778586320799506,47.5278510665989,0.4099176183830858,0.07391400000000001,0.0006769519923894216,672.2054194023946,2.056624817031057
948,300L_GN_2.0_6.0_25_225_trail_5/GS_30.0_GN_100_L_300_Trail_5_orig.png,5,300,30.0,100,3.981946502048378,0.4432951837969418,50.76020499443651,1.0640998633389531,0.08257400000000001,0.002100929318182786,652.9282806691543,1.1588646802085267
949,300L_GN_2.0_6.0_25_225_trail_5/GS_30.0_GN_100_L_300_Trail_5_mirror.png,5,300,30.0,100,3.981946502048378,0.4432951837969418,50.76020499443651,1.0640998633389531,0.08257400000000001,0.002100929318182786,652.9282806691543,1.1588646802085267
950,300L_GN_2.0_6.0_25_225_trail_5/GS_30.0_GN_100_L_300_Trail_5_flip.png,5,300,30.0,100,3.981946502048378,0.4432951837969418,50.76020499443651,1.0640998633389531,0.08257400000000001,0.002100929318182786,652.9282806691543,1.1588646802085267
951,300L_GN_2.0_6.0_25_225_trail_5/GS_30.0_GN_100_L_300_Trail_5_mirror_flip.png,5,300,30.0,100,3.981946502048378,0.4432951837969418,50.76020499443651,1.0640998633389531,0.08257400000000001,0.002100929318182786,652.9282806691543,1.1588646802085267
952,300L_GN_2.0_6.0_25_225_trail_5/GS_29.139_GN_106_L_300_Trail_5_orig.png,5,300,29.138575870717926,106,3.72068500796298,0.4076673958517647,51.92606477116787,0.7432683900086482,0.081918,0.0012910213011410815,664.0079564370374,1.7456183508589436
953,300L_GN_2.0_6.0_25_225_trail_5/GS_29.139_GN_106_L_300_Trail_5_mirror.png,5,300,29.138575870717926,106,3.72068500796298,0.4076673958517647,51.92606477116787,0.7432683900086482,0.081918,0.0012910213011410815,664.0079564370374,1.7456183508589436
954,300L_GN_2.0_6.0_25_225_trail_5/GS_29.139_GN_106_L_300_Trail_5_flip.png,5,300,29.138575870717926,106,3.72068500796298,0.4076673958517647,51.92606477116787,0.7432683900086482,0.081918,0.0012910213011410815,664.0079564370374,1.7456183508589436
955,300L_GN_2.0_6.0_25_225_trail_5/GS_29.139_GN_106_L_300_Trail_5_mirror_flip.png,5,300,29.138575870717926,106,3.72068500796298,0.4076673958517647,51.92606477116787,0.7432683900086482,0.081918,0.0012910213011410815,664.0079564370374,1.7456183508589436
956,300L_GN_2.0_6.0_25_225_trail_5/GS_28.347_GN_112_L_300_Trail_5_orig.png,5,300,28.34733547569204,112,3.813337362265988,0.40357442519356335,51.49785360049458,0.7554650296608663,0.084334,0.0015236745059230984,642.9522738678929,1.0821498016353455
957,300L_GN_2.0_6.0_25_225_trail_5/GS_28.347_GN_112_L_300_Trail_5_mirror.png,5,300,28.34733547569204,112,3.813337362265988,0.40357442519356335,51.49785360049458,0.7554650296608663,0.084334,0.0015236745059230984,642.9522738678929,1.0821498016353455
958,300L_GN_2.0_6.0_25_225_trail_5/GS_28.347_GN_112_L_300_Trail_5_flip.png,5,300,28.34733547569204,112,3.813337362265988,0.40357442519356335,51.49785360049458,0.7554650296608663,0.084334,0.0015236745059230984,642.9522738678929,1.0821498016353455
959,300L_GN_2.0_6.0_25_225_trail_5/GS_28.347_GN_112_L_300_Trail_5_mirror_flip.png,5,300,28.34733547569204,112,3.813337362265988,0.40357442519356335,51.49785360049458,0.7554650296608663,0.084334,0.0015236745059230984,642.9522738678929,1.0821498016353455
960,300L_GN_2.0_6.0_25_225_trail_5/GS_27.501_GN_119_L_300_Trail_5_orig.png,5,300,27.50095491084634,119,3.4024024582699774,0.4728264836603598,46.05753511210325,0.7335361651077067,0.07271000000000001,0.0011676814634137102,668.731197994525,2.563235407399122
961,300L_GN_2.0_6.0_25_225_trail_5/GS_27.501_GN_119_L_300_Trail_5_mirror.png,5,300,27.50095491084634,119,3.4024024582699774,0.4728264836603598,46.05753511210325,0.7335361651077067,0.07271000000000001,0.0011676814634137102,668.731197994525,2.563235407399122
962,300L_GN_2.0_6.0_25_225_trail_5/GS_27.501_GN_119_L_300_Trail_5_flip.png,5,300,27.50095491084634,119,3.4024024582699774,0.4728264836603598,46.05753511210325,0.7335361651077067,0.07271000000000001,0.0011676814634137102,668.731197994525,2.563235407399122
963,300L_GN_2.0_6.0_25_225_trail_5/GS_27.501_GN_119_L_300_Trail_5_mirror_flip.png,5,300,27.50095491084634,119,3.4024024582699774,0.4728264836603598,46.05753511210325,0.7335361651077067,0.07271000000000001,0.0011676814634137102,668.731197994525,2.563235407399122
964,300L_GN_2.0_6.0_25_225_trail_5/GS_26.726_GN_126_L_300_Trail_5_orig.png,5,300,26.726124191242437,126,3.914495932061942,0.3503156484711413,43.7749062624877,1.0650687427047993,0.069414,0.0018090063570922019,664.0294032894417,0.9660206920993484
965,300L_GN_2.0_6.0_25_225_trail_5/GS_26.726_GN_126_L_300_Trail_5_mirror.png,5,300,26.726124191242437,126,3.914495932061942,0.3503156484711413,43.7749062624877,1.0650687427047993,0.069414,0.0018090063570922019,664.0294032894417,0.9660206920993484
966,300L_GN_2.0_6.0_25_225_trail_5/GS_26.726_GN_126_L_300_Trail_5_flip.png,5,300,26.726124191242437,126,3.914495932061942,0.3503156484711413,43.7749062624877,1.0650687427047993,0.069414,0.0018090063570922019,664.0294032894417,0.9660206920993484
967,300L_GN_2.0_6.0_25_225_trail_5/GS_26.726_GN_126_L_300_Trail_5_mirror_flip.png,5,300,26.726124191242437,126,3.914495932061942,0.3503156484711413,43.7749062624877,1.0650687427047993,0.069414,0.0018090063570922019,664.0294032894417,0.9660206920993484
968,300L_GN_2.0_6.0_25_225_trail_5/GS_26.112_GN_132_L_300_Trail_5_orig.png,5,300,26.111648393354677,132,3.8591343907712448,0.1598837406386078,51.92066172865678,0.44297905081087735,0.08298200000000001,0.0007860127225433425,659.7213835983663,1.0467077023540907
969,300L_GN_2.0_6.0_25_225_trail_5/GS_26.112_GN_132_L_300_Trail_5_mirror.png,5,300,26.111648393354677,132,3.8591343907712448,0.1598837406386078,51.92066172865678,0.44297905081087735,0.08298200000000001,0.0007860127225433425,659.7213835983663,1.0467077023540907
970,300L_GN_2.0_6.0_25_225_trail_5/GS_26.112_GN_132_L_300_Trail_5_flip.png,5,300,26.111648393354677,132,3.8591343907712448,0.1598837406386078,51.92066172865678,0.44297905081087735,0.08298200000000001,0.0007860127225433425,659.7213835983663,1.0467077023540907
971,300L_GN_2.0_6.0_25_225_trail_5/GS_26.112_GN_132_L_300_Trail_5_mirror_flip.png,5,300,26.111648393354677,132,3.8591343907712448,0.1598837406386078,51.92066172865678,0.44297905081087735,0.08298200000000001,0.0007860127225433425,659.7213835983663,1.0467077023540907
972,300L_GN_2.0_6.0_25_225_trail_5/GS_25.0_GN_144_L_300_Trail_5_orig.png,5,300,25.0,144,3.382303704554494,0.19737511947620445,46.68874506540392,1.5256799566725836,0.07616600000000001,0.0024292188044719182,648.7786755837955,1.4687368102860523
973,300L_GN_2.0_6.0_25_225_trail_5/GS_25.0_GN_144_L_300_Trail_5_mirror.png,5,300,25.0,144,3.382303704554494,0.19737511947620445,46.68874506540392,1.5256799566725836,0.07616600000000001,0.0024292188044719182,648.7786755837955,1.4687368102860523
974,300L_GN_2.0_6.0_25_225_trail_5/GS_25.0_GN_144_L_300_Trail_5_flip.png,5,300,25.0,144,3.382303704554494,0.19737511947620445,46.68874506540392,1.5256799566725836,0.07616600000000001,0.0024292188044719182,648.7786755837955,1.4687368102860523
975,300L_GN_2.0_6.0_25_225_trail_5/GS_25.0_GN_144_L_300_Trail_5_mirror_flip.png,5,300,25.0,144,3.382303704554494,0.19737511947620445,46.68874506540392,1.5256799566725836,0.07616600000000001,0.0024292188044719182,648.7786755837955,1.4687368102860523
976,300L_GN_2.0_6.0_25_225_trail_5/GS_24.333_GN_152_L_300_Trail_5_orig.png,5,300,24.333213169614382,152,4.206387695755597,0.23340386811403047,48.22430087117629,1.2204276875621396,0.07812400000000001,0.002190530529346715,653.4348885853652,1.62547791210803
977,300L_GN_2.0_6.0_25_225_trail_5/GS_24.333_GN_152_L_300_Trail_5_mirror.png,5,300,24.333213169614382,152,4.206387695755597,0.23340386811403047,48.22430087117629,1.2204276875621396,0.07812400000000001,0.002190530529346715,653.4348885853652,1.62547791210803
978,300L_GN_2.0_6.0_25_225_trail_5/GS_24.333_GN_152_L_300_Trail_5_flip.png,5,300,24.333213169614382,152,4.206387695755597,0.23340386811403047,48.22430087117629,1.2204276875621396,0.07812400000000001,0.002190530529346715,653.4348885853652,1.62547791210803
979,300L_GN_2.0_6.0_25_225_trail_5/GS_24.333_GN_152_L_300_Trail_5_mirror_flip.png,5,300,24.333213169614382,152,4.206387695755597,0.23340386811403047,48.22430087117629,1.2204276875621396,0.07812400000000001,0.002190530529346715,653.4348885853652,1.62547791210803
980,300L_GN_2.0_6.0_25_225_trail_5/GS_23.717_GN_160_L_300_Trail_5_orig.png,5,300,23.717082451262844,160,3.1969161174504195,0.09126913410249031,49.303388026633435,1.760912581410141,0.07982,0.0027343737857140143,645.8980331578244,1.530860025152074
981,300L_GN_2.0_6.0_25_225_trail_5/GS_23.717_GN_160_L_300_Trail_5_mirror.png,5,300,23.717082451262844,160,3.1969161174504195,0.09126913410249031,49.303388026633435,1.760912581410141,0.07982,0.0027343737857140143,645.8980331578244,1.530860025152074
982,300L_GN_2.0_6.0_25_225_trail_5/GS_23.717_GN_160_L_300_Trail_5_flip.png,5,300,23.717082451262844,160,3.1969161174504195,0.09126913410249031,49.303388026633435,1.760912581410141,0.07982,0.0027343737857140143,645.8980331578244,1.530860025152074
983,300L_GN_2.0_6.0_25_225_trail_5/GS_23.717_GN_160_L_300_Trail_5_mirror_flip.png,5,300,23.717082451262844,160,3.1969161174504195,0.09126913410249031,49.303388026633435,1.760912581410141,0.07982,0.0027343737857140143,645.8980331578244,1.530860025152074
984,300L_GN_2.0_6.0_25_225_trail_5/GS_23.146_GN_168_L_300_Trail_5_orig.png,5,300,23.145502494313785,168,3.533784597719759,0.16594428393448726,49.90783353190973,0.4208217425526642,0.08243600000000001,0.0007768551988626993,643.5670626565591,0.9132720046518668
985,300L_GN_2.0_6.0_25_225_trail_5/GS_23.146_GN_168_L_300_Trail_5_mirror.png,5,300,23.145502494313785,168,3.533784597719759,0.16594428393448726,49.90783353190973,0.4208217425526642,0.08243600000000001,0.0007768551988626993,643.5670626565591,0.9132720046518668
986,300L_GN_2.0_6.0_25_225_trail_5/GS_23.146_GN_168_L_300_Trail_5_flip.png,5,300,23.145502494313785,168,3.533784597719759,0.16594428393448726,49.90783353190973,0.4208217425526642,0.08243600000000001,0.0007768551988626993,643.5670626565591,0.9132720046518668
987,300L_GN_2.0_6.0_25_225_trail_5/GS_23.146_GN_168_L_300_Trail_5_mirror_flip.png,5,300,23.145502494313785,168,3.533784597719759,0.16594428393448726,49.90783353190973,0.4208217425526642,0.08243600000000001,0.0007768551988626993,643.5670626565591,0.9132720046518668
988,300L_GN_2.0_6.0_25_225_trail_5/GS_22.486_GN_178_L_300_Trail_5_orig.png,5,300,22.48595066987584,178,3.5498567404368666,0.33260612434287756,47.97221643483357,1.9858053697205356,0.08033200000000001,0.003487121448989125,627.0147434683471,1.2292682338479481
989,300L_GN_2.0_6.0_25_225_trail_5/GS_22.486_GN_178_L_300_Trail_5_mirror.png,5,300,22.48595066987584,178,3.5498567404368666,0.33260612434287756,47.97221643483357,1.9858053697205356,0.08033200000000001,0.003487121448989125,627.0147434683471,1.2292682338479481
990,300L_GN_2.0_6.0_25_225_trail_5/GS_22.486_GN_178_L_300_Trail_5_flip.png,5,300,22.48595066987584,178,3.5498567404368666,0.33260612434287756,47.97221643483357,1.9858053697205356,0.08033200000000001,0.003487121448989125,627.0147434683471,1.2292682338479481
991,300L_GN_2.0_6.0_25_225_trail_5/GS_22.486_GN_178_L_300_Trail_5_mirror_flip.png,5,300,22.48595066987584,178,3.5498567404368666,0.33260612434287756,47.97221643483357,1.9858053697205356,0.08033200000000001,0.003487121448989125,627.0147434683471,1.2292682338479481
992,300L_GN_2.0_6.0_25_225_trail_5/GS_21.213_GN_200_L_300_Trail_5_orig.png,5,300,21.213203435596427,200,3.488604180733509,0.2952213063483137,53.0052030132119,1.0231543285420919,0.08759600000000001,0.001975435141937089,633.4428918900319,2.2124369035954135
993,300L_GN_2.0_6.0_25_225_trail_5/GS_21.213_GN_200_L_300_Trail_5_mirror.png,5,300,21.213203435596427,200,3.488604180733509,0.2952213063483137,53.0052030132119,1.0231543285420919,0.08759600000000001,0.001975435141937089,633.4428918900319,2.2124369035954135
994,300L_GN_2.0_6.0_25_225_trail_5/GS_21.213_GN_200_L_300_Trail_5_flip.png,5,300,21.213203435596427,200,3.488604180733509,0.2952213063483137,53.0052030132119,1.0231543285420919,0.08759600000000001,0.001975435141937089,633.4428918900319,2.2124369035954135
995,300L_GN_2.0_6.0_25_225_trail_5/GS_21.213_GN_200_L_300_Trail_5_mirror_flip.png,5,300,21.213203435596427,200,3.488604180733509,0.2952213063483137,53.0052030132119,1.0231543285420919,0.08759600000000001,0.001975435141937089,633.4428918900319,2.2124369035954135
996,300L_GN_2.0_6.0_25_225_trail_5/GS_20.0_GN_225_L_300_Trail_5_orig.png,5,300,20.0,225,3.8823173115919487,0.2459621445479749,48.43619992394691,0.8215907550008031,0.08096800000000001,0.0013767410795062407,623.325998415732,1.7192028978813594
997,300L_GN_2.0_6.0_25_225_trail_5/GS_20.0_GN_225_L_300_Trail_5_mirror.png,5,300,20.0,225,3.8823173115919487,0.2459621445479749,48.43619992394691,0.8215907550008031,0.08096800000000001,0.0013767410795062407,623.325998415732,1.7192028978813594
998,300L_GN_2.0_6.0_25_225_trail_5/GS_20.0_GN_225_L_300_Trail_5_flip.png,5,300,20.0,225,3.8823173115919487,0.2459621445479749,48.43619992394691,0.8215907550008031,0.08096800000000001,0.0013767410795062407,623.325998415732,1.7192028978813594
999,300L_GN_2.0_6.0_25_225_trail_5/GS_20.0_GN_225_L_300_Trail_5_mirror_flip.png,5,300,20.0,225,3.8823173115919487,0.2459621445479749,48.43619992394691,0.8215907550008031,0.08096800000000001,0.0013767410795062407,623.325998415732,1.7192028978813594
1000,300L_GN_2.0_6.0_25_225_trail_6/GS_60.0_GN_25_L_300_Trail_6_orig.png,6,300,60.0,25,3.2868941747847154,0.41547743477346344,50.71030843643558,0.9122384416740267,0.078394,0.0014410079805469512,701.5562190014625,2.5121232375191638
1001,300L_GN_2.0_6.0_25_225_trail_6/GS_60.0_GN_25_L_300_Trail_6_mirror.png,6,300,60.0,25,3.2868941747847154,0.41547743477346344,50.71030843643558,0.9122384416740267,0.078394,0.0014410079805469512,701.5562190014625,2.5121232375191638
1002,300L_GN_2.0_6.0_25_225_trail_6/GS_60.0_GN_25_L_300_Trail_6_flip.png,6,300,60.0,25,3.2868941747847154,0.41547743477346344,50.71030843643558,0.9122384416740267,0.078394,0.0014410079805469512,701.5562190014625,2.5121232375191638
1003,300L_GN_2.0_6.0_25_225_trail_6/GS_60.0_GN_25_L_300_Trail_6_mirror_flip.png,6,300,60.0,25,3.2868941747847154,0.41547743477346344,50.71030843643558,0.9122384416740267,0.078394,0.0014410079805469512,701.5562190014625,2.5121232375191638
1004,300L_GN_2.0_6.0_25_225_trail_6/GS_58.835_GN_26_L_300_Trail_6_orig.png,6,300,58.834840541455215,26,4.457473783177586,0.34754371804686174,57.191670172598904,0.9513704354014338,0.08640600000000001,0.001427355596899388,719.1883924720578,0.9891549826733963
1005,300L_GN_2.0_6.0_25_225_trail_6/GS_58.835_GN_26_L_300_Trail_6_mirror.png,6,300,58.834840541455215,26,4.457473783177586,0.34754371804686174,57.191670172598904,0.9513704354014338,0.08640600000000001,0.001427355596899388,719.1883924720578,0.9891549826733963
1006,300L_GN_2.0_6.0_25_225_trail_6/GS_58.835_GN_26_L_300_Trail_6_flip.png,6,300,58.834840541455215,26,4.457473783177586,0.34754371804686174,57.191670172598904,0.9513704354014338,0.08640600000000001,0.001427355596899388,719.1883924720578,0.9891549826733963
1007,300L_GN_2.0_6.0_25_225_trail_6/GS_58.835_GN_26_L_300_Trail_6_mirror_flip.png,6,300,58.834840541455215,26,4.457473783177586,0.34754371804686174,57.191670172598904,0.9513704354014338,0.08640600000000001,0.001427355596899388,719.1883924720578,0.9891549826733963
1008,300L_GN_2.0_6.0_25_225_trail_6/GS_57.735_GN_27_L_300_Trail_6_orig.png,6,300,57.735026918962575,27,3.086776481519729,0.46394331558022367,51.50385909128223,1.0220588536200164,0.080496,0.00129742205931609,694.6702351536894,3.409391081064316
1009,300L_GN_2.0_6.0_25_225_trail_6/GS_57.735_GN_27_L_300_Trail_6_mirror.png,6,300,57.735026918962575,27,3.086776481519729,0.46394331558022367,51.50385909128223,1.0220588536200164,0.080496,0.00129742205931609,694.6702351536894,3.409391081064316
1010,300L_GN_2.0_6.0_25_225_trail_6/GS_57.735_GN_27_L_300_Trail_6_flip.png,6,300,57.735026918962575,27,3.086776481519729,0.46394331558022367,51.50385909128223,1.0220588536200164,0.080496,0.00129742205931609,694.6702351536894,3.409391081064316
1011,300L_GN_2.0_6.0_25_225_trail_6/GS_57.735_GN_27_L_300_Trail_6_mirror_flip.png,6,300,57.735026918962575,27,3.086776481519729,0.46394331558022367,51.50385909128223,1.0220588536200164,0.080496,0.00129742205931609,694.6702351536894,3.409391081064316
1012,300L_GN_2.0_6.0_25_225_trail_6/GS_56.695_GN_28_L_300_Trail_6_orig.png,6,300,56.69467095138408,28,3.16885660546394,0.3284974388691203,51.24628699370703,0.17974035178502598,0.079332,0.00052483902293942,703.4404938129574,2.3786460323154075
1013,300L_GN_2.0_6.0_25_225_trail_6/GS_56.695_GN_28_L_300_Trail_6_mirror.png,6,300,56.69467095138408,28,3.16885660546394,0.3284974388691203,51.24628699370703,0.17974035178502598,0.079332,0.00052483902293942,703.4404938129574,2.3786460323154075
1014,300L_GN_2.0_6.0_25_225_trail_6/GS_56.695_GN_28_L_300_Trail_6_flip.png,6,300,56.69467095138408,28,3.16885660546394,0.3284974388691203,51.24628699370703,0.17974035178502598,0.079332,0.00052483902293942,703.4404938129574,2.3786460323154075
1015,300L_GN_2.0_6.0_25_225_trail_6/GS_56.695_GN_28_L_300_Trail_6_mirror_flip.png,6,300,56.69467095138408,28,3.16885660546394,0.3284974388691203,51.24628699370703,0.17974035178502598,0.079332,0.00052483902293942,703.4404938129574,2.3786460323154075
1016,300L_GN_2.0_6.0_25_225_trail_6/GS_55.709_GN_29_L_300_Trail_6_orig.png,6,300,55.70860145311556,29,2.9590145959765293,0.13701704652751975,55.95664357559433,1.3702380868021709,0.08286,0.0020143088144572063,729.7531118423452,1.2488043084075775
1017,300L_GN_2.0_6.0_25_225_trail_6/GS_55.709_GN_29_L_300_Trail_6_mirror.png,6,300,55.70860145311556,29,2.9590145959765293,0.13701704652751975,55.95664357559433,1.3702380868021709,0.08286,0.0020143088144572063,729.7531118423452,1.2488043084075775
1018,300L_GN_2.0_6.0_25_225_trail_6/GS_55.709_GN_29_L_300_Trail_6_flip.png,6,300,55.70860145311556,29,2.9590145959765293,0.13701704652751975,55.95664357559433,1.3702380868021709,0.08286,0.0020143088144572063,729.7531118423452,1.2488043084075775
1019,300L_GN_2.0_6.0_25_225_trail_6/GS_55.709_GN_29_L_300_Trail_6_mirror_flip.png,6,300,55.70860145311556,29,2.9590145959765293,0.13701704652751975,55.95664357559433,1.3702380868021709,0.08286,0.0020143088144572063,729.7531118423452,1.2488043084075775
1020,300L_GN_2.0_6.0_25_225_trail_6/GS_54.772_GN_30_L_300_Trail_6_orig.png,6,300,54.772255750516614,30,2.990246140850549,0.3920554892559246,54.89957088792674,0.7369242840607854,0.08474800000000002,0.0014195266816794995,701.5618904488902,1.0852701342580449
1021,300L_GN_2.0_6.0_25_225_trail_6/GS_54.772_GN_30_L_300_Trail_6_mirror.png,6,300,54.772255750516614,30,2.990246140850549,0.3920554892559246,54.89957088792674,0.7369242840607854,0.08474800000000002,0.0014195266816794995,701.5618904488902,1.0852701342580449
1022,300L_GN_2.0_6.0_25_225_trail_6/GS_54.772_GN_30_L_300_Trail_6_flip.png,6,300,54.772255750516614,30,2.990246140850549,0.3920554892559246,54.89957088792674,0.7369242840607854,0.08474800000000002,0.0014195266816794995,701.5618904488902,1.0852701342580449
1023,300L_GN_2.0_6.0_25_225_trail_6/GS_54.772_GN_30_L_300_Trail_6_mirror_flip.png,6,300,54.772255750516614,30,2.990246140850549,0.3920554892559246,54.89957088792674,0.7369242840607854,0.08474800000000002,0.0014195266816794995,701.5618904488902,1.0852701342580449
1024,300L_GN_2.0_6.0_25_225_trail_6/GS_53.882_GN_31_L_300_Trail_6_orig.png,6,300,53.881590608032475,31,3.0105668824566,0.40243627463152853,48.863198259478175,0.31135474756526543,0.077826,0.0003748919844435181,680.1222706840348,1.8012243116138273
1025,300L_GN_2.0_6.0_25_225_trail_6/GS_53.882_GN_31_L_300_Trail_6_mirror.png,6,300,53.881590608032475,31,3.0105668824566,0.40243627463152853,48.863198259478175,0.31135474756526543,0.077826,0.0003748919844435181,680.1222706840348,1.8012243116138273
1026,300L_GN_2.0_6.0_25_225_trail_6/GS_53.882_GN_31_L_300_Trail_6_flip.png,6,300,53.881590608032475,31,3.0105668824566,0.40243627463152853,48.863198259478175,0.31135474756526543,0.077826,0.0003748919844435181,680.1222706840348,1.8012243116138273
1027,300L_GN_2.0_6.0_25_225_trail_6/GS_53.882_GN_31_L_300_Trail_6_mirror_flip.png,6,300,53.881590608032475,31,3.0105668824566,0.40243627463152853,48.863198259478175,0.31135474756526543,0.077826,0.0003748919844435181,680.1222706840348,1.8012243116138273
1028,300L_GN_2.0_6.0_25_225_trail_6/GS_53.033_GN_32_L_300_Trail_6_orig.png,6,300,53.03300858899106,32,3.390731615589247,0.6450775300020328,52.872044714889,0.7660894915459261,0.07944200000000001,0.001190787974410221,722.4402891541434,2.1984846072242177
1029,300L_GN_2.0_6.0_25_225_trail_6/GS_53.033_GN_32_L_300_Trail_6_mirror.png,6,300,53.03300858899106,32,3.390731615589247,0.6450775300020328,52.872044714889,0.7660894915459261,0.07944200000000001,0.001190787974410221,722.4402891541434,2.1984846072242177
1030,300L_GN_2.0_6.0_25_225_trail_6/GS_53.033_GN_32_L_300_Trail_6_flip.png,6,300,53.03300858899106,32,3.390731615589247,0.6450775300020328,52.872044714889,0.7660894915459261,0.07944200000000001,0.001190787974410221,722.4402891541434,2.1984846072242177
1031,300L_GN_2.0_6.0_25_225_trail_6/GS_53.033_GN_32_L_300_Trail_6_mirror_flip.png,6,300,53.03300858899106,32,3.390731615589247,0.6450775300020328,52.872044714889,0.7660894915459261,0.07944200000000001,0.001190787974410221,722.4402891541434,2.1984846072242177
1032,300L_GN_2.0_6.0_25_225_trail_6/GS_52.223_GN_33_L_300_Trail_6_orig.png,6,300,52.223296786709355,33,2.6381310625922527,0.14487997782975617,48.269953992314626,0.9408480295777619,0.07647400000000001,0.0014449442895835096,679.372177550809,2.1321901272044554
1033,300L_GN_2.0_6.0_25_225_trail_6/GS_52.223_GN_33_L_300_Trail_6_mirror.png,6,300,52.223296786709355,33,2.6381310625922527,0.14487997782975617,48.269953992314626,0.9408480295777619,0.07647400000000001,0.0014449442895835096,679.372177550809,2.1321901272044554
1034,300L_GN_2.0_6.0_25_225_trail_6/GS_52.223_GN_33_L_300_Trail_6_flip.png,6,300,52.223296786709355,33,2.6381310625922527,0.14487997782975617,48.269953992314626,0.9408480295777619,0.07647400000000001,0.0014449442895835096,679.372177550809,2.1321901272044554
1035,300L_GN_2.0_6.0_25_225_trail_6/GS_52.223_GN_33_L_300_Trail_6_mirror_flip.png,6,300,52.223296786709355,33,2.6381310625922527,0.14487997782975617,48.269953992314626,0.9408480295777619,0.07647400000000001,0.0014449442895835096,679.372177550809,2.1321901272044554
1036,300L_GN_2.0_6.0_25_225_trail_6/GS_51.45_GN_34_L_300_Trail_6_orig.png,6,300,51.44957554275265,34,3.523748682052826,0.2214735502453688,50.761560481961105,0.7662146905096578,0.07898800000000002,0.0012797562267869566,698.4452341068576,1.121764783499862
1037,300L_GN_2.0_6.0_25_225_trail_6/GS_51.45_GN_34_L_300_Trail_6_mirror.png,6,300,51.44957554275265,34,3.523748682052826,0.2214735502453688,50.761560481961105,0.7662146905096578,0.07898800000000002,0.0012797562267869566,698.4452341068576,1.121764783499862
1038,300L_GN_2.0_6.0_25_225_trail_6/GS_51.45_GN_34_L_300_Trail_6_flip.png,6,300,51.44957554275265,34,3.523748682052826,0.2214735502453688,50.761560481961105,0.7662146905096578,0.07898800000000002,0.0012797562267869566,698.4452341068576,1.121764783499862
1039,300L_GN_2.0_6.0_25_225_trail_6/GS_51.45_GN_34_L_300_Trail_6_mirror_flip.png,6,300,51.44957554275265,34,3.523748682052826,0.2214735502453688,50.761560481961105,0.7662146905096578,0.07898800000000002,0.0012797562267869566,698.4452341068576,1.121764783499862
1040,300L_GN_2.0_6.0_25_225_trail_6/GS_50.709_GN_35_L_300_Trail_6_orig.png,6,300,50.709255283710995,35,2.8272733765967137,0.6655270662034954,51.92288899366317,0.6651218143656296,0.08331000000000001,0.0010494379448066447,672.576143758726,3.0770442322750466
1041,300L_GN_2.0_6.0_25_225_trail_6/GS_50.709_GN_35_L_300_Trail_6_mirror.png,6,300,50.709255283710995,35,2.8272733765967137,0.6655270662034954,51.92288899366317,0.6651218143656296,0.08331000000000001,0.0010494379448066447,672.576143758726,3.0770442322750466
1042,300L_GN_2.0_6.0_25_225_trail_6/GS_50.709_GN_35_L_300_Trail_6_flip.png,6,300,50.709255283710995,35,2.8272733765967137,0.6655270662034954,51.92288899366317,0.6651218143656296,0.08331000000000001,0.0010494379448066447,672.576143758726,3.0770442322750466
1043,300L_GN_2.0_6.0_25_225_trail_6/GS_50.709_GN_35_L_300_Trail_6_mirror_flip.png,6,300,50.709255283710995,35,2.8272733765967137,0.6655270662034954,51.92288899366317,0.6651218143656296,0.08331000000000001,0.0010494379448066447,672.576143758726,3.0770442322750466
1044,300L_GN_2.0_6.0_25_225_trail_6/GS_50.0_GN_36_L_300_Trail_6_orig.png,6,300,50.0,36,3.1020536217821855,0.41162522792944845,47.711153333631806,0.5938888458437853,0.07581400000000002,0.0010332589220519682,675.0660461224886,1.6862494842561746
1045,300L_GN_2.0_6.0_25_225_trail_6/GS_50.0_GN_36_L_300_Trail_6_mirror.png,6,300,50.0,36,3.1020536217821855,0.41162522792944845,47.711153333631806,0.5938888458437853,0.07581400000000002,0.0010332589220519682,675.0660461224886,1.6862494842561746
1046,300L_GN_2.0_6.0_25_225_trail_6/GS_50.0_GN_36_L_300_Trail_6_flip.png,6,300,50.0,36,3.1020536217821855,0.41162522792944845,47.711153333631806,0.5938888458437853,0.07581400000000002,0.0010332589220519682,675.0660461224886,1.6862494842561746
1047,300L_GN_2.0_6.0_25_225_trail_6/GS_50.0_GN_36_L_300_Trail_6_mirror_flip.png,6,300,50.0,36,3.1020536217821855,0.41162522792944845,47.711153333631806,0.5938888458437853,0.07581400000000002,0.0010332589220519682,675.0660461224886,1.6862494842561746
1048,300L_GN_2.0_6.0_25_225_trail_6/GS_49.32_GN_37_L_300_Trail_6_orig.png,6,300,49.31969619160719,37,3.502859771074096,0.6876889223455335,52.8314081260704,0.2992129235478035,0.085316,0.00046991914198083243,678.0526297145545,1.547598454363111
1049,300L_GN_2.0_6.0_25_225_trail_6/GS_49.32_GN_37_L_300_Trail_6_mirror.png,6,300,49.31969619160719,37,3.502859771074096,0.6876889223455335,52.8314081260704,0.2992129235478035,0.085316,0.00046991914198083243,678.0526297145545,1.547598454363111
1050,300L_GN_2.0_6.0_25_225_trail_6/GS_49.32_GN_37_L_300_Trail_6_flip.png,6,300,49.31969619160719,37,3.502859771074096,0.6876889223455335,52.8314081260704,0.2992129235478035,0.085316,0.00046991914198083243,678.0526297145545,1.547598454363111
1051,300L_GN_2.0_6.0_25_225_trail_6/GS_49.32_GN_37_L_300_Trail_6_mirror_flip.png,6,300,49.31969619160719,37,3.502859771074096,0.6876889223455335,52.8314081260704,0.2992129235478035,0.085316,0.00046991914198083243,678.0526297145545,1.547598454363111
1052,300L_GN_2.0_6.0_25_225_trail_6/GS_48.666_GN_38_L_300_Trail_6_orig.png,6,300,48.666426339228764,38,3.5900400198143343,0.797862481278721,54.28483667141835,1.3648956991265948,0.08542800000000002,0.002466571709883984,688.056624438549,1.1232716588259495
1053,300L_GN_2.0_6.0_25_225_trail_6/GS_48.666_GN_38_L_300_Trail_6_mirror.png,6,300,48.666426339228764,38,3.5900400198143343,0.797862481278721,54.28483667141835,1.3648956991265948,0.08542800000000002,0.002466571709883984,688.056624438549,1.1232716588259495
1054,300L_GN_2.0_6.0_25_225_trail_6/GS_48.666_GN_38_L_300_Trail_6_flip.png,6,300,48.666426339228764,38,3.5900400198143343,0.797862481278721,54.28483667141835,1.3648956991265948,0.08542800000000002,0.002466571709883984,688.056624438549,1.1232716588259495
1055,300L_GN_2.0_6.0_25_225_trail_6/GS_48.666_GN_38_L_300_Trail_6_mirror_flip.png,6,300,48.666426339228764,38,3.5900400198143343,0.797862481278721,54.28483667141835,1.3648956991265948,0.08542800000000002,0.002466571709883984,688.056624438549,1.1232716588259495
1056,300L_GN_2.0_6.0_25_225_trail_6/GS_48.038_GN_39_L_300_Trail_6_orig.png,6,300,48.03844614152614,39,2.8740709222859087,0.21786863109254367,52.40004103552367,0.848160926724367,0.081924,0.0013817177714714427,688.306812868185,1.4375394634233094
1057,300L_GN_2.0_6.0_25_225_trail_6/GS_48.038_GN_39_L_300_Trail_6_mirror.png,6,300,48.03844614152614,39,2.8740709222859087,0.21786863109254367,52.40004103552367,0.848160926724367,0.081924,0.0013817177714714427,688.306812868185,1.4375394634233094
1058,300L_GN_2.0_6.0_25_225_trail_6/GS_48.038_GN_39_L_300_Trail_6_flip.png,6,300,48.03844614152614,39,2.8740709222859087,0.21786863109254367,52.40004103552367,0.848160926724367,0.081924,0.0013817177714714427,688.306812868185,1.4375394634233094
1059,300L_GN_2.0_6.0_25_225_trail_6/GS_48.038_GN_39_L_300_Trail_6_mirror_flip.png,6,300,48.03844614152614,39,2.8740709222859087,0.21786863109254367,52.40004103552367,0.848160926724367,0.081924,0.0013817177714714427,688.306812868185,1.4375394634233094
1060,300L_GN_2.0_6.0_25_225_trail_6/GS_47.434_GN_40_L_300_Trail_6_orig.png,6,300,47.43416490252569,40,2.9708994317222555,0.26144576486913684,50.60784106198117,0.42727603000012315,0.080006,0.0008083217181296064,678.7708754608577,3.0072676817589454
1061,300L_GN_2.0_6.0_25_225_trail_6/GS_47.434_GN_40_L_300_Trail_6_mirror.png,6,300,47.43416490252569,40,2.9708994317222555,0.26144576486913684,50.60784106198117,0.42727603000012315,0.080006,0.0008083217181296064,678.7708754608577,3.0072676817589454
1062,300L_GN_2.0_6.0_25_225_trail_6/GS_47.434_GN_40_L_300_Trail_6_flip.png,6,300,47.43416490252569,40,2.9708994317222555,0.26144576486913684,50.60784106198117,0.42727603000012315,0.080006,0.0008083217181296064,678.7708754608577,3.0072676817589454
1063,300L_GN_2.0_6.0_25_225_trail_6/GS_47.434_GN_40_L_300_Trail_6_mirror_flip.png,6,300,47.43416490252569,40,2.9708994317222555,0.26144576486913684,50.60784106198117,0.42727603000012315,0.080006,0.0008083217181296064,678.7708754608577,3.0072676817589454
1064,300L_GN_2.0_6.0_25_225_trail_6/GS_46.852_GN_41_L_300_Trail_6_orig.png,6,300,46.85212856658182,41,3.2159796830370078,0.3874185199450387,54.498803812040094,1.0646671337477298,0.08819000000000002,0.0018309778808057774,657.2933308270051,0.9033746129085042
1065,300L_GN_2.0_6.0_25_225_trail_6/GS_46.852_GN_41_L_300_Trail_6_mirror.png,6,300,46.85212856658182,41,3.2159796830370078,0.3874185199450387,54.498803812040094,1.0646671337477298,0.08819000000000002,0.0018309778808057774,657.2933308270051,0.9033746129085042
1066,300L_GN_2.0_6.0_25_225_trail_6/GS_46.852_GN_41_L_300_Trail_6_flip.png,6,300,46.85212856658182,41,3.2159796830370078,0.3874185199450387,54.498803812040094,1.0646671337477298,0.08819000000000002,0.0018309778808057774,657.2933308270051,0.9033746129085042
1067,300L_GN_2.0_6.0_25_225_trail_6/GS_46.852_GN_41_L_300_Trail_6_mirror_flip.png,6,300,46.85212856658182,41,3.2159796830370078,0.3874185199450387,54.498803812040094,1.0646671337477298,0.08819000000000002,0.0018309778808057774,657.2933308270051,0.9033746129085042
1068,300L_GN_2.0_6.0_25_225_trail_6/GS_45.75_GN_43_L_300_Trail_6_orig.png,6,300,45.7495710997814,43,3.496517099702043,0.5176857244045865,48.01190141247557,0.5399731093637503,0.079554,0.001057763678710898,665.4240986347546,1.2513260313995584
1069,300L_GN_2.0_6.0_25_225_trail_6/GS_45.75_GN_43_L_300_Trail_6_mirror.png,6,300,45.7495710997814,43,3.496517099702043,0.5176857244045865,48.01190141247557,0.5399731093637503,0.079554,0.001057763678710898,665.4240986347546,1.2513260313995584
1070,300L_GN_2.0_6.0_25_225_trail_6/GS_45.75_GN_43_L_300_Trail_6_flip.png,6,300,45.7495710997814,43,3.496517099702043,0.5176857244045865,48.01190141247557,0.5399731093637503,0.079554,0.001057763678710898,665.4240986347546,1.2513260313995584
1071,300L_GN_2.0_6.0_25_225_trail_6/GS_45.75_GN_43_L_300_Trail_6_mirror_flip.png,6,300,45.7495710997814,43,3.496517099702043,0.5176857244045865,48.01190141247557,0.5399731093637503,0.079554,0.001057763678710898,665.4240986347546,1.2513260313995584
1072,300L_GN_2.0_6.0_25_225_trail_6/GS_45.227_GN_44_L_300_Trail_6_orig.png,6,300,45.22670168666454,44,3.924236149392885,0.23627320979242625,46.300357274598596,0.33082640781625944,0.07614000000000001,0.00028656587375331755,653.5511638913518,1.83725783900855
1073,300L_GN_2.0_6.0_25_225_trail_6/GS_45.227_GN_44_L_300_Trail_6_mirror.png,6,300,45.22670168666454,44,3.924236149392885,0.23627320979242625,46.300357274598596,0.33082640781625944,0.07614000000000001,0.00028656587375331755,653.5511638913518,1.83725783900855
1074,300L_GN_2.0_6.0_25_225_trail_6/GS_45.227_GN_44_L_300_Trail_6_flip.png,6,300,45.22670168666454,44,3.924236149392885,0.23627320979242625,46.300357274598596,0.33082640781625944,0.07614000000000001,0.00028656587375331755,653.5511638913518,1.83725783900855
1075,300L_GN_2.0_6.0_25_225_trail_6/GS_45.227_GN_44_L_300_Trail_6_mirror_flip.png,6,300,45.22670168666454,44,3.924236149392885,0.23627320979242625,46.300357274598596,0.33082640781625944,0.07614000000000001,0.00028656587375331755,653.5511638913518,1.83725783900855
1076,300L_GN_2.0_6.0_25_225_trail_6/GS_43.759_GN_47_L_300_Trail_6_orig.png,6,300,43.75949744936837,47,3.38721804768497,0.9291343115621788,52.37597788258754,0.8605720116463588,0.08560800000000002,0.0013536823851997225,652.7103521419097,1.5210063286809508
1077,300L_GN_2.0_6.0_25_225_trail_6/GS_43.759_GN_47_L_300_Trail_6_mirror.png,6,300,43.75949744936837,47,3.38721804768497,0.9291343115621788,52.37597788258754,0.8605720116463588,0.08560800000000002,0.0013536823851997225,652.7103521419097,1.5210063286809508
1078,300L_GN_2.0_6.0_25_225_trail_6/GS_43.759_GN_47_L_300_Trail_6_flip.png,6,300,43.75949744936837,47,3.38721804768497,0.9291343115621788,52.37597788258754,0.8605720116463588,0.08560800000000002,0.0013536823851997225,652.7103521419097,1.5210063286809508
1079,300L_GN_2.0_6.0_25_225_trail_6/GS_43.759_GN_47_L_300_Trail_6_mirror_flip.png,6,300,43.75949744936837,47,3.38721804768497,0.9291343115621788,52.37597788258754,0.8605720116463588,0.08560800000000002,0.0013536823851997225,652.7103521419097,1.5210063286809508
1080,300L_GN_2.0_6.0_25_225_trail_6/GS_43.301_GN_48_L_300_Trail_6_orig.png,6,300,43.30127018922194,48,2.7878356297126796,0.13840531131068332,47.96082081845545,1.1448799680864512,0.079778,0.00227357339885916,647.0117415436846,2.8367661038964234
1081,300L_GN_2.0_6.0_25_225_trail_6/GS_43.301_GN_48_L_300_Trail_6_mirror.png,6,300,43.30127018922194,48,2.7878356297126796,0.13840531131068332,47.96082081845545,1.1448799680864512,0.079778,0.00227357339885916,647.0117415436846,2.8367661038964234
1082,300L_GN_2.0_6.0_25_225_trail_6/GS_43.301_GN_48_L_300_Trail_6_flip.png,6,300,43.30127018922194,48,2.7878356297126796,0.13840531131068332,47.96082081845545,1.1448799680864512,0.079778,0.00227357339885916,647.0117415436846,2.8367661038964234
1083,300L_GN_2.0_6.0_25_225_trail_6/GS_43.301_GN_48_L_300_Trail_6_mirror_flip.png,6,300,43.30127018922194,48,2.7878356297126796,0.13840531131068332,47.96082081845545,1.1448799680864512,0.079778,0.00227357339885916,647.0117415436846,2.8367661038964234
1084,300L_GN_2.0_6.0_25_225_trail_6/GS_42.426_GN_50_L_300_Trail_6_orig.png,6,300,42.42640687119285,50,2.6380980332610524,0.07683584457733701,51.717268905779086,1.0067490519357736,0.08292200000000001,0.0015837853389901032,664.5740643419283,2.572800270775977
1085,300L_GN_2.0_6.0_25_225_trail_6/GS_42.426_GN_50_L_300_Trail_6_mirror.png,6,300,42.42640687119285,50,2.6380980332610524,0.07683584457733701,51.717268905779086,1.0067490519357736,0.08292200000000001,0.0015837853389901032,664.5740643419283,2.572800270775977
1086,300L_GN_2.0_6.0_25_225_trail_6/GS_42.426_GN_50_L_300_Trail_6_flip.png,6,300,42.42640687119285,50,2.6380980332610524,0.07683584457733701,51.717268905779086,1.0067490519357736,0.08292200000000001,0.0015837853389901032,664.5740643419283,2.572800270775977
1087,300L_GN_2.0_6.0_25_225_trail_6/GS_42.426_GN_50_L_300_Trail_6_mirror_flip.png,6,300,42.42640687119285,50,2.6380980332610524,0.07683584457733701,51.717268905779086,1.0067490519357736,0.08292200000000001,0.0015837853389901032,664.5740643419283,2.572800270775977
1088,300L_GN_2.0_6.0_25_225_trail_6/GS_41.603_GN_52_L_300_Trail_6_orig.png,6,300,41.60251471689219,52,2.26476470804585,0.23981551091029754,56.752647604594486,0.629992243257623,0.09239000000000001,0.0012215236387397442,663.6189715259743,2.0285399098521437
1089,300L_GN_2.0_6.0_25_225_trail_6/GS_41.603_GN_52_L_300_Trail_6_mirror.png,6,300,41.60251471689219,52,2.26476470804585,0.23981551091029754,56.752647604594486,0.629992243257623,0.09239000000000001,0.0012215236387397442,663.6189715259743,2.0285399098521437
1090,300L_GN_2.0_6.0_25_225_trail_6/GS_41.603_GN_52_L_300_Trail_6_flip.png,6,300,41.60251471689219,52,2.26476470804585,0.23981551091029754,56.752647604594486,0.629992243257623,0.09239000000000001,0.0012215236387397442,663.6189715259743,2.0285399098521437
1091,300L_GN_2.0_6.0_25_225_trail_6/GS_41.603_GN_52_L_300_Trail_6_mirror_flip.png,6,300,41.60251471689219,52,2.26476470804585,0.23981551091029754,56.752647604594486,0.629992243257623,0.09239000000000001,0.0012215236387397442,663.6189715259743,2.0285399098521437
1092,300L_GN_2.0_6.0_25_225_trail_6/GS_41.208_GN_53_L_300_Trail_6_orig.png,6,300,41.20816918460671,53,2.3499201740235525,0.5538679230355823,51.89233677084343,0.7768572582656258,0.08547600000000002,0.0013407400941271212,653.3421395890218,1.3026535118105704
1093,300L_GN_2.0_6.0_25_225_trail_6/GS_41.208_GN_53_L_300_Trail_6_mirror.png,6,300,41.20816918460671,53,2.3499201740235525,0.5538679230355823,51.89233677084343,0.7768572582656258,0.08547600000000002,0.0013407400941271212,653.3421395890218,1.3026535118105704
1094,300L_GN_2.0_6.0_25_225_trail_6/GS_41.208_GN_53_L_300_Trail_6_flip.png,6,300,41.20816918460671,53,2.3499201740235525,0.5538679230355823,51.89233677084343,0.7768572582656258,0.08547600000000002,0.0013407400941271212,653.3421395890218,1.3026535118105704
1095,300L_GN_2.0_6.0_25_225_trail_6/GS_41.208_GN_53_L_300_Trail_6_mirror_flip.png,6,300,41.20816918460671,53,2.3499201740235525,0.5538679230355823,51.89233677084343,0.7768572582656258,0.08547600000000002,0.0013407400941271212,653.3421395890218,1.3026535118105704
1096,300L_GN_2.0_6.0_25_225_trail_6/GS_40.089_GN_56_L_300_Trail_6_orig.png,6,300,40.08918628686366,56,3.269127884883811,0.3947986190738289,52.21704530786867,0.5361215260994707,0.08457400000000001,0.0009753071311130694,655.7593156441652,2.996158194040399
1097,300L_GN_2.0_6.0_25_225_trail_6/GS_40.089_GN_56_L_300_Trail_6_mirror.png,6,300,40.08918628686366,56,3.269127884883811,0.3947986190738289,52.21704530786867,0.5361215260994707,0.08457400000000001,0.0009753071311130694,655.7593156441652,2.996158194040399
1098,300L_GN_2.0_6.0_25_225_trail_6/GS_40.089_GN_56_L_300_Trail_6_flip.png,6,300,40.08918628686366,56,3.269127884883811,0.3947986190738289,52.21704530786867,0.5361215260994707,0.08457400000000001,0.0009753071311130694,655.7593156441652,2.996158194040399
1099,300L_GN_2.0_6.0_25_225_trail_6/GS_40.089_GN_56_L_300_Trail_6_mirror_flip.png,6,300,40.08918628686366,56,3.269127884883811,0.3947986190738289,52.21704530786867,0.5361215260994707,0.08457400000000001,0.0009753071311130694,655.7593156441652,2.996158194040399
1100,300L_GN_2.0_6.0_25_225_trail_6/GS_39.392_GN_58_L_300_Trail_6_orig.png,6,300,39.391929857916764,58,2.4193299217417676,0.2615895310834503,46.47489370900191,1.6330948625848933,0.07686600000000002,0.0025534494316512314,638.5026452996174,4.812802895433687
1101,300L_GN_2.0_6.0_25_225_trail_6/GS_39.392_GN_58_L_300_Trail_6_mirror.png,6,300,39.391929857916764,58,2.4193299217417676,0.2615895310834503,46.47489370900191,1.6330948625848933,0.07686600000000002,0.0025534494316512314,638.5026452996174,4.812802895433687
1102,300L_GN_2.0_6.0_25_225_trail_6/GS_39.392_GN_58_L_300_Trail_6_flip.png,6,300,39.391929857916764,58,2.4193299217417676,0.2615895310834503,46.47489370900191,1.6330948625848933,0.07686600000000002,0.0025534494316512314,638.5026452996174,4.812802895433687
1103,300L_GN_2.0_6.0_25_225_trail_6/GS_39.392_GN_58_L_300_Trail_6_mirror_flip.png,6,300,39.391929857916764,58,2.4193299217417676,0.2615895310834503,46.47489370900191,1.6330948625848933,0.07686600000000002,0.0025534494316512314,638.5026452996174,4.812802895433687
1104,300L_GN_2.0_6.0_25_225_trail_6/GS_38.73_GN_60_L_300_Trail_6_orig.png,6,300,38.72983346207417,60,2.615080192804039,0.24803886107254458,47.486316623273275,0.6664891088077397,0.07738400000000001,0.001850757682680259,658.7206155428246,2.439221958322785
1105,300L_GN_2.0_6.0_25_225_trail_6/GS_38.73_GN_60_L_300_Trail_6_mirror.png,6,300,38.72983346207417,60,2.615080192804039,0.24803886107254458,47.486316623273275,0.6664891088077397,0.07738400000000001,0.001850757682680259,658.7206155428246,2.439221958322785
1106,300L_GN_2.0_6.0_25_225_trail_6/GS_38.73_GN_60_L_300_Trail_6_flip.png,6,300,38.72983346207417,60,2.615080192804039,0.24803886107254458,47.486316623273275,0.6664891088077397,0.07738400000000001,0.001850757682680259,658.7206155428246,2.439221958322785
1107,300L_GN_2.0_6.0_25_225_trail_6/GS_38.73_GN_60_L_300_Trail_6_mirror_flip.png,6,300,38.72983346207417,60,2.615080192804039,0.24803886107254458,47.486316623273275,0.6664891088077397,0.07738400000000001,0.001850757682680259,658.7206155428246,2.439221958322785
1108,300L_GN_2.0_6.0_25_225_trail_6/GS_38.1_GN_62_L_300_Trail_6_orig.png,6,300,38.10003810005715,62,3.39878820914018,0.9030827962936115,51.88567123844805,1.4003539028858654,0.08597,0.0022141905970353977,638.8729951742657,2.7881432808294004
1109,300L_GN_2.0_6.0_25_225_trail_6/GS_38.1_GN_62_L_300_Trail_6_mirror.png,6,300,38.10003810005715,62,3.39878820914018,0.9030827962936115,51.88567123844805,1.4003539028858654,0.08597,0.0022141905970353977,638.8729951742657,2.7881432808294004
1110,300L_GN_2.0_6.0_25_225_trail_6/GS_38.1_GN_62_L_300_Trail_6_flip.png,6,300,38.10003810005715,62,3.39878820914018,0.9030827962936115,51.88567123844805,1.4003539028858654,0.08597,0.0022141905970353977,638.8729951742657,2.7881432808294004
1111,300L_GN_2.0_6.0_25_225_trail_6/GS_38.1_GN_62_L_300_Trail_6_mirror_flip.png,6,300,38.10003810005715,62,3.39878820914018,0.9030827962936115,51.88567123844805,1.4003539028858654,0.08597,0.0022141905970353977,638.8729951742657,2.7881432808294004
1112,300L_GN_2.0_6.0_25_225_trail_6/GS_37.5_GN_64_L_300_Trail_6_orig.png,6,300,37.5,64,3.208596411846134,0.2777409280677413,49.47809170068734,0.8273858485516286,0.08172600000000001,0.0016085844708935892,646.4651007805177,2.82754214025176
1113,300L_GN_2.0_6.0_25_225_trail_6/GS_37.5_GN_64_L_300_Trail_6_mirror.png,6,300,37.5,64,3.208596411846134,0.2777409280677413,49.47809170068734,0.8273858485516286,0.08172600000000001,0.0016085844708935892,646.4651007805177,2.82754214025176
1114,300L_GN_2.0_6.0_25_225_trail_6/GS_37.5_GN_64_L_300_Trail_6_flip.png,6,300,37.5,64,3.208596411846134,0.2777409280677413,49.47809170068734,0.8273858485516286,0.08172600000000001,0.0016085844708935892,646.4651007805177,2.82754214025176
1115,300L_GN_2.0_6.0_25_225_trail_6/GS_37.5_GN_64_L_300_Trail_6_mirror_flip.png,6,300,37.5,64,3.208596411846134,0.2777409280677413,49.47809170068734,0.8273858485516286,0.08172600000000001,0.0016085844708935892,646.4651007805177,2.82754214025176
1116,300L_GN_2.0_6.0_25_225_trail_6/GS_36.927_GN_66_L_300_Trail_6_orig.png,6,300,36.927447293799815,66,2.335796939189855,0.11151550316623832,41.914105926501364,1.800470361111817,0.070124,0.0026855807565590007,640.2146957257189,1.6438197459114168
1117,300L_GN_2.0_6.0_25_225_trail_6/GS_36.927_GN_66_L_300_Trail_6_mirror.png,6,300,36.927447293799815,66,2.335796939189855,0.11151550316623832,41.914105926501364,1.800470361111817,0.070124,0.0026855807565590007,640.2146957257189,1.6438197459114168
1118,300L_GN_2.0_6.0_25_225_trail_6/GS_36.927_GN_66_L_300_Trail_6_flip.png,6,300,36.927447293799815,66,2.335796939189855,0.11151550316623832,41.914105926501364,1.800470361111817,0.070124,0.0026855807565590007,640.2146957257189,1.6438197459114168
1119,300L_GN_2.0_6.0_25_225_trail_6/GS_36.927_GN_66_L_300_Trail_6_mirror_flip.png,6,300,36.927447293799815,66,2.335796939189855,0.11151550316623832,41.914105926501364,1.800470361111817,0.070124,0.0026855807565590007,640.2146957257189,1.6438197459114168
1120,300L_GN_2.0_6.0_25_225_trail_6/GS_36.116_GN_69_L_300_Trail_6_orig.png,6,300,36.11575592573076,69,2.7992058225826346,0.2057408737852485,45.34109791541674,0.7544693341643978,0.07724,0.0013333116664906188,619.0519748216084,1.0709690061144235
1121,300L_GN_2.0_6.0_25_225_trail_6/GS_36.116_GN_69_L_300_Trail_6_mirror.png,6,300,36.11575592573076,69,2.7992058225826346,0.2057408737852485,45.34109791541674,0.7544693341643978,0.07724,0.0013333116664906188,619.0519748216084,1.0709690061144235
1122,300L_GN_2.0_6.0_25_225_trail_6/GS_36.116_GN_69_L_300_Trail_6_flip.png,6,300,36.11575592573076,69,2.7992058225826346,0.2057408737852485,45.34109791541674,0.7544693341643978,0.07724,0.0013333116664906188,619.0519748216084,1.0709690061144235
1123,300L_GN_2.0_6.0_25_225_trail_6/GS_36.116_GN_69_L_300_Trail_6_mirror_flip.png,6,300,36.11575592573076,69,2.7992058225826346,0.2057408737852485,45.34109791541674,0.7544693341643978,0.07724,0.0013333116664906188,619.0519748216084,1.0709690061144235
1124,300L_GN_2.0_6.0_25_225_trail_6/GS_34.874_GN_74_L_300_Trail_6_orig.png,6,300,34.87429162314579,74,3.145225650268596,0.3515243586926824,52.25935553381903,0.48915695513041346,0.08385400000000001,0.0007502692849903977,653.7403168784379,0.9604189548701075
1125,300L_GN_2.0_6.0_25_225_trail_6/GS_34.874_GN_74_L_300_Trail_6_mirror.png,6,300,34.87429162314579,74,3.145225650268596,0.3515243586926824,52.25935553381903,0.48915695513041346,0.08385400000000001,0.0007502692849903977,653.7403168784379,0.9604189548701075
1126,300L_GN_2.0_6.0_25_225_trail_6/GS_34.874_GN_74_L_300_Trail_6_flip.png,6,300,34.87429162314579,74,3.145225650268596,0.3515243586926824,52.25935553381903,0.48915695513041346,0.08385400000000001,0.0007502692849903977,653.7403168784379,0.9604189548701075
1127,300L_GN_2.0_6.0_25_225_trail_6/GS_34.874_GN_74_L_300_Trail_6_mirror_flip.png,6,300,34.87429162314579,74,3.145225650268596,0.3515243586926824,52.25935553381903,0.48915695513041346,0.08385400000000001,0.0007502692849903977,653.7403168784379,0.9604189548701075
1128,300L_GN_2.0_6.0_25_225_trail_6/GS_33.968_GN_78_L_300_Trail_6_orig.png,6,300,33.96831102433787,78,2.889344949174673,0.71459169556622,52.41561872581915,1.8859148503154164,0.08610799999999999,0.0033152821901008653,642.0449269038548,2.069310464307665
1129,300L_GN_2.0_6.0_25_225_trail_6/GS_33.968_GN_78_L_300_Trail_6_mirror.png,6,300,33.96831102433787,78,2.889344949174673,0.71459169556622,52.41561872581915,1.8859148503154164,0.08610799999999999,0.0033152821901008653,642.0449269038548,2.069310464307665
1130,300L_GN_2.0_6.0_25_225_trail_6/GS_33.968_GN_78_L_300_Trail_6_flip.png,6,300,33.96831102433787,78,2.889344949174673,0.71459169556622,52.41561872581915,1.8859148503154164,0.08610799999999999,0.0033152821901008653,642.0449269038548,2.069310464307665
1131,300L_GN_2.0_6.0_25_225_trail_6/GS_33.968_GN_78_L_300_Trail_6_mirror_flip.png,6,300,33.96831102433787,78,2.889344949174673,0.71459169556622,52.41561872581915,1.8859148503154164,0.08610799999999999,0.0033152821901008653,642.0449269038548,2.069310464307665
1132,300L_GN_2.0_6.0_25_225_trail_6/GS_33.129_GN_82_L_300_Trail_6_orig.png,6,300,33.12945782245396,82,2.711259717892005,0.12669143995295473,41.61572705098805,1.2715950523130444,0.068492,0.0018026025629627874,634.8663626026752,2.421079890720547
1133,300L_GN_2.0_6.0_25_225_trail_6/GS_33.129_GN_82_L_300_Trail_6_mirror.png,6,300,33.12945782245396,82,2.711259717892005,0.12669143995295473,41.61572705098805,1.2715950523130444,0.068492,0.0018026025629627874,634.8663626026752,2.421079890720547
1134,300L_GN_2.0_6.0_25_225_trail_6/GS_33.129_GN_82_L_300_Trail_6_flip.png,6,300,33.12945782245396,82,2.711259717892005,0.12669143995295473,41.61572705098805,1.2715950523130444,0.068492,0.0018026025629627874,634.8663626026752,2.421079890720547
1135,300L_GN_2.0_6.0_25_225_trail_6/GS_33.129_GN_82_L_300_Trail_6_mirror_flip.png,6,300,33.12945782245396,82,2.711259717892005,0.12669143995295473,41.61572705098805,1.2715950523130444,0.068492,0.0018026025629627874,634.8663626026752,2.421079890720547
1136,300L_GN_2.0_6.0_25_225_trail_6/GS_32.163_GN_87_L_300_Trail_6_orig.png,6,300,32.163376045133845,87,2.570622748503042,0.27070309998390524,49.239062255919876,1.636538034898888,0.08016000000000001,0.0024597804780101783,653.2663539621528,3.6426202708796818
1137,300L_GN_2.0_6.0_25_225_trail_6/GS_32.163_GN_87_L_300_Trail_6_mirror.png,6,300,32.163376045133845,87,2.570622748503042,0.27070309998390524,49.239062255919876,1.636538034898888,0.08016000000000001,0.0024597804780101783,653.2663539621528,3.6426202708796818
1138,300L_GN_2.0_6.0_25_225_trail_6/GS_32.163_GN_87_L_300_Trail_6_flip.png,6,300,32.163376045133845,87,2.570622748503042,0.27070309998390524,49.239062255919876,1.636538034898888,0.08016000000000001,0.0024597804780101783,653.2663539621528,3.6426202708796818
1139,300L_GN_2.0_6.0_25_225_trail_6/GS_32.163_GN_87_L_300_Trail_6_mirror_flip.png,6,300,32.163376045133845,87,2.570622748503042,0.27070309998390524,49.239062255919876,1.636538034898888,0.08016000000000001,0.0024597804780101783,653.2663539621528,3.6426202708796818
1140,300L_GN_2.0_6.0_25_225_trail_6/GS_31.449_GN_91_L_300_Trail_6_orig.png,6,300,31.44854510165755,91,2.877413342372061,0.3255567312819153,48.124333887461844,0.4023127576806085,0.082394,0.0012580715400961867,611.8197363409381,1.6336882223344977
1141,300L_GN_2.0_6.0_25_225_trail_6/GS_31.449_GN_91_L_300_Trail_6_mirror.png,6,300,31.44854510165755,91,2.877413342372061,0.3255567312819153,48.124333887461844,0.4023127576806085,0.082394,0.0012580715400961867,611.8197363409381,1.6336882223344977
1142,300L_GN_2.0_6.0_25_225_trail_6/GS_31.449_GN_91_L_300_Trail_6_flip.png,6,300,31.44854510165755,91,2.877413342372061,0.3255567312819153,48.124333887461844,0.4023127576806085,0.082394,0.0012580715400961867,611.8197363409381,1.6336882223344977
1143,300L_GN_2.0_6.0_25_225_trail_6/GS_31.449_GN_91_L_300_Trail_6_mirror_flip.png,6,300,31.44854510165755,91,2.877413342372061,0.3255567312819153,48.124333887461844,0.4023127576806085,0.082394,0.0012580715400961867,611.8197363409381,1.6336882223344977
1144,300L_GN_2.0_6.0_25_225_trail_6/GS_30.779_GN_95_L_300_Trail_6_orig.png,6,300,30.779350562554626,95,3.9497812690958143,0.3604251676093247,45.5494073957079,1.5180292158992703,0.076402,0.0022867041785066987,627.0529609546476,1.15830448294895
1145,300L_GN_2.0_6.0_25_225_trail_6/GS_30.779_GN_95_L_300_Trail_6_mirror.png,6,300,30.779350562554626,95,3.9497812690958143,0.3604251676093247,45.5494073957079,1.5180292158992703,0.076402,0.0022867041785066987,627.0529609546476,1.15830448294895
1146,300L_GN_2.0_6.0_25_225_trail_6/GS_30.779_GN_95_L_300_Trail_6_flip.png,6,300,30.779350562554626,95,3.9497812690958143,0.3604251676093247,45.5494073957079,1.5180292158992703,0.076402,0.0022867041785066987,627.0529609546476,1.15830448294895
1147,300L_GN_2.0_6.0_25_225_trail_6/GS_30.779_GN_95_L_300_Trail_6_mirror_flip.png,6,300,30.779350562554626,95,3.9497812690958143,0.3604251676093247,45.5494073957079,1.5180292158992703,0.076402,0.0022867041785066987,627.0529609546476,1.15830448294895
1148,300L_GN_2.0_6.0_25_225_trail_6/GS_30.0_GN_100_L_300_Trail_6_orig.png,6,300,30.0,100,2.2900444936776907,0.258752960567248,48.39029270667665,0.8577351213237908,0.08275000000000002,0.0015309604828342251,604.502396347023,2.3695106968340434
1149,300L_GN_2.0_6.0_25_225_trail_6/GS_30.0_GN_100_L_300_Trail_6_mirror.png,6,300,30.0,100,2.2900444936776907,0.258752960567248,48.39029270667665,0.8577351213237908,0.08275000000000002,0.0015309604828342251,604.502396347023,2.3695106968340434
1150,300L_GN_2.0_6.0_25_225_trail_6/GS_30.0_GN_100_L_300_Trail_6_flip.png,6,300,30.0,100,2.2900444936776907,0.258752960567248,48.39029270667665,0.8577351213237908,0.08275000000000002,0.0015309604828342251,604.502396347023,2.3695106968340434
1151,300L_GN_2.0_6.0_25_225_trail_6/GS_30.0_GN_100_L_300_Trail_6_mirror_flip.png,6,300,30.0,100,2.2900444936776907,0.258752960567248,48.39029270667665,0.8577351213237908,0.08275000000000002,0.0015309604828342251,604.502396347023,2.3695106968340434
1152,300L_GN_2.0_6.0_25_225_trail_6/GS_29.139_GN_106_L_300_Trail_6_orig.png,6,300,29.138575870717926,106,2.1364898779348787,0.43756796947810656,49.74791569280758,0.3968606252494018,0.081304,0.0005285678764359367,637.9991236788286,0.6279368190497014
1153,300L_GN_2.0_6.0_25_225_trail_6/GS_29.139_GN_106_L_300_Trail_6_mirror.png,6,300,29.138575870717926,106,2.1364898779348787,0.43756796947810656,49.74791569280758,0.3968606252494018,0.081304,0.0005285678764359367,637.9991236788286,0.6279368190497014
1154,300L_GN_2.0_6.0_25_225_trail_6/GS_29.139_GN_106_L_300_Trail_6_flip.png,6,300,29.138575870717926,106,2.1364898779348787,0.43756796947810656,49.74791569280758,0.3968606252494018,0.081304,0.0005285678764359367,637.9991236788286,0.6279368190497014
1155,300L_GN_2.0_6.0_25_225_trail_6/GS_29.139_GN_106_L_300_Trail_6_mirror_flip.png,6,300,29.138575870717926,106,2.1364898779348787,0.43756796947810656,49.74791569280758,0.3968606252494018,0.081304,0.0005285678764359367,637.9991236788286,0.6279368190497014
1156,300L_GN_2.0_6.0_25_225_trail_6/GS_28.347_GN_112_L_300_Trail_6_orig.png,6,300,28.34733547569204,112,2.289678289634737,0.4087827221471133,51.05684777753078,0.7212428474737741,0.08687800000000001,0.0011566918345004415,612.6800629082196,0.8307529310561391
1157,300L_GN_2.0_6.0_25_225_trail_6/GS_28.347_GN_112_L_300_Trail_6_mirror.png,6,300,28.34733547569204,112,2.289678289634737,0.4087827221471133,51.05684777753078,0.7212428474737741,0.08687800000000001,0.0011566918345004415,612.6800629082196,0.8307529310561391
1158,300L_GN_2.0_6.0_25_225_trail_6/GS_28.347_GN_112_L_300_Trail_6_flip.png,6,300,28.34733547569204,112,2.289678289634737,0.4087827221471133,51.05684777753078,0.7212428474737741,0.08687800000000001,0.0011566918345004415,612.6800629082196,0.8307529310561391
1159,300L_GN_2.0_6.0_25_225_trail_6/GS_28.347_GN_112_L_300_Trail_6_mirror_flip.png,6,300,28.34733547569204,112,2.289678289634737,0.4087827221471133,51.05684777753078,0.7212428474737741,0.08687800000000001,0.0011566918345004415,612.6800629082196,0.8307529310561391
1160,300L_GN_2.0_6.0_25_225_trail_6/GS_27.501_GN_119_L_300_Trail_6_orig.png,6,300,27.50095491084634,119,2.93464467936185,0.9970076130983188,52.255086314260986,0.8522239501187326,0.08726800000000001,0.001829703801165646,625.5091529397681,1.808140603617634
1161,300L_GN_2.0_6.0_25_225_trail_6/GS_27.501_GN_119_L_300_Trail_6_mirror.png,6,300,27.50095491084634,119,2.93464467936185,0.9970076130983188,52.255086314260986,0.8522239501187326,0.08726800000000001,0.001829703801165646,625.5091529397681,1.808140603617634
1162,300L_GN_2.0_6.0_25_225_trail_6/GS_27.501_GN_119_L_300_Trail_6_flip.png,6,300,27.50095491084634,119,2.93464467936185,0.9970076130983188,52.255086314260986,0.8522239501187326,0.08726800000000001,0.001829703801165646,625.5091529397681,1.808140603617634
1163,300L_GN_2.0_6.0_25_225_trail_6/GS_27.501_GN_119_L_300_Trail_6_mirror_flip.png,6,300,27.50095491084634,119,2.93464467936185,0.9970076130983188,52.255086314260986,0.8522239501187326,0.08726800000000001,0.001829703801165646,625.5091529397681,1.808140603617634
1164,300L_GN_2.0_6.0_25_225_trail_6/GS_26.726_GN_126_L_300_Trail_6_orig.png,6,300,26.726124191242437,126,3.23548325644877,0.3286092048088361,47.00803997126735,1.3298265882377907,0.083432,0.0025243644744766948,574.142122900444,2.491319741908107
1165,300L_GN_2.0_6.0_25_225_trail_6/GS_26.726_GN_126_L_300_Trail_6_mirror.png,6,300,26.726124191242437,126,3.23548325644877,0.3286092048088361,47.00803997126735,1.3298265882377907,0.083432,0.0025243644744766948,574.142122900444,2.491319741908107
1166,300L_GN_2.0_6.0_25_225_trail_6/GS_26.726_GN_126_L_300_Trail_6_flip.png,6,300,26.726124191242437,126,3.23548325644877,0.3286092048088361,47.00803997126735,1.3298265882377907,0.083432,0.0025243644744766948,574.142122900444,2.491319741908107
1167,300L_GN_2.0_6.0_25_225_trail_6/GS_26.726_GN_126_L_300_Trail_6_mirror_flip.png,6,300,26.726124191242437,126,3.23548325644877,0.3286092048088361,47.00803997126735,1.3298265882377907,0.083432,0.0025243644744766948,574.142122900444,2.491319741908107
1168,300L_GN_2.0_6.0_25_225_trail_6/GS_26.112_GN_132_L_300_Trail_6_orig.png,6,300,26.111648393354677,132,3.324551128490832,0.15038048577838442,50.03530147965942,0.8376259402764635,0.086676,0.0014767748643581425,600.8807191255843,1.3926860574020647
1169,300L_GN_2.0_6.0_25_225_trail_6/GS_26.112_GN_132_L_300_Trail_6_mirror.png,6,300,26.111648393354677,132,3.324551128490832,0.15038048577838442,50.03530147965942,0.8376259402764635,0.086676,0.0014767748643581425,600.8807191255843,1.3926860574020647
1170,300L_GN_2.0_6.0_25_225_trail_6/GS_26.112_GN_132_L_300_Trail_6_flip.png,6,300,26.111648393354677,132,3.324551128490832,0.15038048577838442,50.03530147965942,0.8376259402764635,0.086676,0.0014767748643581425,600.8807191255843,1.3926860574020647
1171,300L_GN_2.0_6.0_25_225_trail_6/GS_26.112_GN_132_L_300_Trail_6_mirror_flip.png,6,300,26.111648393354677,132,3.324551128490832,0.15038048577838442,50.03530147965942,0.8376259402764635,0.086676,0.0014767748643581425,600.8807191255843,1.3926860574020647
1172,300L_GN_2.0_6.0_25_225_trail_6/GS_25.0_GN_144_L_300_Trail_6_orig.png,6,300,25.0,144,3.322337481236184,0.22284502383788934,51.07316339583625,1.657329052736442,0.086286,0.003000197326843683,614.39387016918,1.5943613498630869
1173,300L_GN_2.0_6.0_25_225_trail_6/GS_25.0_GN_144_L_300_Trail_6_mirror.png,6,300,25.0,144,3.322337481236184,0.22284502383788934,51.07316339583625,1.657329052736442,0.086286,0.003000197326843683,614.39387016918,1.5943613498630869
1174,300L_GN_2.0_6.0_25_225_trail_6/GS_25.0_GN_144_L_300_Trail_6_flip.png,6,300,25.0,144,3.322337481236184,0.22284502383788934,51.07316339583625,1.657329052736442,0.086286,0.003000197326843683,614.39387016918,1.5943613498630869
1175,300L_GN_2.0_6.0_25_225_trail_6/GS_25.0_GN_144_L_300_Trail_6_mirror_flip.png,6,300,25.0,144,3.322337481236184,0.22284502383788934,51.07316339583625,1.657329052736442,0.086286,0.003000197326843683,614.39387016918,1.5943613498630869
1176,300L_GN_2.0_6.0_25_225_trail_6/GS_24.333_GN_152_L_300_Trail_6_orig.png,6,300,24.333213169614382,152,2.1220835080064795,0.12392407978620808,49.974806150603,0.6886706522656022,0.08684200000000002,0.0014530849940729519,591.5080727552536,2.4464163735492153
1177,300L_GN_2.0_6.0_25_225_trail_6/GS_24.333_GN_152_L_300_Trail_6_mirror.png,6,300,24.333213169614382,152,2.1220835080064795,0.12392407978620808,49.974806150603,0.6886706522656022,0.08684200000000002,0.0014530849940729519,591.5080727552536,2.4464163735492153
1178,300L_GN_2.0_6.0_25_225_trail_6/GS_24.333_GN_152_L_300_Trail_6_flip.png,6,300,24.333213169614382,152,2.1220835080064795,0.12392407978620808,49.974806150603,0.6886706522656022,0.08684200000000002,0.0014530849940729519,591.5080727552536,2.4464163735492153
1179,300L_GN_2.0_6.0_25_225_trail_6/GS_24.333_GN_152_L_300_Trail_6_mirror_flip.png,6,300,24.333213169614382,152,2.1220835080064795,0.12392407978620808,49.974806150603,0.6886706522656022,0.08684200000000002,0.0014530849940729519,591.5080727552536,2.4464163735492153
1180,300L_GN_2.0_6.0_25_225_trail_6/GS_23.717_GN_160_L_300_Trail_6_orig.png,6,300,23.717082451262844,160,3.07032441893051,0.14821329382227852,48.27138941145271,1.3629445048463622,0.08647600000000001,0.0024443944035282034,568.7749319262873,2.0711998776106797
1181,300L_GN_2.0_6.0_25_225_trail_6/GS_23.717_GN_160_L_300_Trail_6_mirror.png,6,300,23.717082451262844,160,3.07032441893051,0.14821329382227852,48.27138941145271,1.3629445048463622,0.08647600000000001,0.0024443944035282034,568.7749319262873,2.0711998776106797
1182,300L_GN_2.0_6.0_25_225_trail_6/GS_23.717_GN_160_L_300_Trail_6_flip.png,6,300,23.717082451262844,160,3.07032441893051,0.14821329382227852,48.27138941145271,1.3629445048463622,0.08647600000000001,0.0024443944035282034,568.7749319262873,2.0711998776106797
1183,300L_GN_2.0_6.0_25_225_trail_6/GS_23.717_GN_160_L_300_Trail_6_mirror_flip.png,6,300,23.717082451262844,160,3.07032441893051,0.14821329382227852,48.27138941145271,1.3629445048463622,0.08647600000000001,0.0024443944035282034,568.7749319262873,2.0711998776106797
1184,300L_GN_2.0_6.0_25_225_trail_6/GS_23.146_GN_168_L_300_Trail_6_orig.png,6,300,23.145502494313785,168,2.526143307630233,0.10063016318264685,45.9595369617632,0.37077380455535836,0.07814600000000002,0.0007036078453229489,609.5734426424249,1.4093589433323293
1185,300L_GN_2.0_6.0_25_225_trail_6/GS_23.146_GN_168_L_300_Trail_6_mirror.png,6,300,23.145502494313785,168,2.526143307630233,0.10063016318264685,45.9595369617632,0.37077380455535836,0.07814600000000002,0.0007036078453229489,609.5734426424249,1.4093589433323293
1186,300L_GN_2.0_6.0_25_225_trail_6/GS_23.146_GN_168_L_300_Trail_6_flip.png,6,300,23.145502494313785,168,2.526143307630233,0.10063016318264685,45.9595369617632,0.37077380455535836,0.07814600000000002,0.0007036078453229489,609.5734426424249,1.4093589433323293
1187,300L_GN_2.0_6.0_25_225_trail_6/GS_23.146_GN_168_L_300_Trail_6_mirror_flip.png,6,300,23.145502494313785,168,2.526143307630233,0.10063016318264685,45.9595369617632,0.37077380455535836,0.07814600000000002,0.0007036078453229489,609.5734426424249,1.4093589433323293
1188,300L_GN_2.0_6.0_25_225_trail_6/GS_22.486_GN_178_L_300_Trail_6_orig.png,6,300,22.48595066987584,178,2.2608794199235946,0.2181575192862489,43.83700039219274,1.3585592097227872,0.076346,0.0014383129005887453,594.8994865979124,0.576201551472502
1189,300L_GN_2.0_6.0_25_225_trail_6/GS_22.486_GN_178_L_300_Trail_6_mirror.png,6,300,22.48595066987584,178,2.2608794199235946,0.2181575192862489,43.83700039219274,1.3585592097227872,0.076346,0.0014383129005887453,594.8994865979124,0.576201551472502
1190,300L_GN_2.0_6.0_25_225_trail_6/GS_22.486_GN_178_L_300_Trail_6_flip.png,6,300,22.48595066987584,178,2.2608794199235946,0.2181575192862489,43.83700039219274,1.3585592097227872,0.076346,0.0014383129005887453,594.8994865979124,0.576201551472502
1191,300L_GN_2.0_6.0_25_225_trail_6/GS_22.486_GN_178_L_300_Trail_6_mirror_flip.png,6,300,22.48595066987584,178,2.2608794199235946,0.2181575192862489,43.83700039219274,1.3585592097227872,0.076346,0.0014383129005887453,594.8994865979124,0.576201551472502
1192,300L_GN_2.0_6.0_25_225_trail_6/GS_21.213_GN_200_L_300_Trail_6_orig.png,6,300,21.213203435596427,200,2.6792685498285325,0.12690843317593561,41.43780053872455,0.48395644488922807,0.07114600000000001,0.0010104375289942454,593.9247119426054,2.12378174717223
1193,300L_GN_2.0_6.0_25_225_trail_6/GS_21.213_GN_200_L_300_Trail_6_mirror.png,6,300,21.213203435596427,200,2.6792685498285325,0.12690843317593561,41.43780053872455,0.48395644488922807,0.07114600000000001,0.0010104375289942454,593.9247119426054,2.12378174717223
1194,300L_GN_2.0_6.0_25_225_trail_6/GS_21.213_GN_200_L_300_Trail_6_flip.png,6,300,21.213203435596427,200,2.6792685498285325,0.12690843317593561,41.43780053872455,0.48395644488922807,0.07114600000000001,0.0010104375289942454,593.9247119426054,2.12378174717223
1195,300L_GN_2.0_6.0_25_225_trail_6/GS_21.213_GN_200_L_300_Trail_6_mirror_flip.png,6,300,21.213203435596427,200,2.6792685498285325,0.12690843317593561,41.43780053872455,0.48395644488922807,0.07114600000000001,0.0010104375289942454,593.9247119426054,2.12378174717223
1196,300L_GN_2.0_6.0_25_225_trail_6/GS_20.0_GN_225_L_300_Trail_6_orig.png,6,300,20.0,225,3.037535776057907,0.10623798865203342,51.518626806569856,0.5276029004766039,0.09064400000000002,0.0012080662233503571,583.8740580407494,2.288748419028425
1197,300L_GN_2.0_6.0_25_225_trail_6/GS_20.0_GN_225_L_300_Trail_6_mirror.png,6,300,20.0,225,3.037535776057907,0.10623798865203342,51.518626806569856,0.5276029004766039,0.09064400000000002,0.0012080662233503571,583.8740580407494,2.288748419028425
1198,300L_GN_2.0_6.0_25_225_trail_6/GS_20.0_GN_225_L_300_Trail_6_flip.png,6,300,20.0,225,3.037535776057907,0.10623798865203342,51.518626806569856,0.5276029004766039,0.09064400000000002,0.0012080662233503571,583.8740580407494,2.288748419028425
1199,300L_GN_2.0_6.0_25_225_trail_6/GS_20.0_GN_225_L_300_Trail_6_mirror_flip.png,6,300,20.0,225,3.037535776057907,0.10623798865203342,51.518626806569856,0.5276029004766039,0.09064400000000002,0.0012080662233503571,583.8740580407494,2.288748419028425
1200,300L_GN_2.0_6.0_25_225_trail_7/GS_60.0_GN_25_L_300_Trail_7_orig.png,7,300,60.0,25,2.7842252142703954,0.31360614800204795,55.75268038180063,0.3286376032308409,0.087546,0.00039767323269236616,690.1809775659125,2.1656246898600737
1201,300L_GN_2.0_6.0_25_225_trail_7/GS_60.0_GN_25_L_300_Trail_7_mirror.png,7,300,60.0,25,2.7842252142703954,0.31360614800204795,55.75268038180063,0.3286376032308409,0.087546,0.00039767323269236616,690.1809775659125,2.1656246898600737
1202,300L_GN_2.0_6.0_25_225_trail_7/GS_60.0_GN_25_L_300_Trail_7_flip.png,7,300,60.0,25,2.7842252142703954,0.31360614800204795,55.75268038180063,0.3286376032308409,0.087546,0.00039767323269236616,690.1809775659125,2.1656246898600737
1203,300L_GN_2.0_6.0_25_225_trail_7/GS_60.0_GN_25_L_300_Trail_7_mirror_flip.png,7,300,60.0,25,2.7842252142703954,0.31360614800204795,55.75268038180063,0.3286376032308409,0.087546,0.00039767323269236616,690.1809775659125,2.1656246898600737
1204,300L_GN_2.0_6.0_25_225_trail_7/GS_58.835_GN_26_L_300_Trail_7_orig.png,7,300,58.834840541455215,26,2.69155717938264,0.2543066983889669,53.041067882446235,1.1646753796196978,0.08079800000000001,0.0020933360934164377,706.3306380339247,1.0654054109370226
1205,300L_GN_2.0_6.0_25_225_trail_7/GS_58.835_GN_26_L_300_Trail_7_mirror.png,7,300,58.834840541455215,26,2.69155717938264,0.2543066983889669,53.041067882446235,1.1646753796196978,0.08079800000000001,0.0020933360934164377,706.3306380339247,1.0654054109370226
1206,300L_GN_2.0_6.0_25_225_trail_7/GS_58.835_GN_26_L_300_Trail_7_flip.png,7,300,58.834840541455215,26,2.69155717938264,0.2543066983889669,53.041067882446235,1.1646753796196978,0.08079800000000001,0.0020933360934164377,706.3306380339247,1.0654054109370226
1207,300L_GN_2.0_6.0_25_225_trail_7/GS_58.835_GN_26_L_300_Trail_7_mirror_flip.png,7,300,58.834840541455215,26,2.69155717938264,0.2543066983889669,53.041067882446235,1.1646753796196978,0.08079800000000001,0.0020933360934164377,706.3306380339247,1.0654054109370226
1208,300L_GN_2.0_6.0_25_225_trail_7/GS_57.735_GN_27_L_300_Trail_7_orig.png,7,300,57.735026918962575,27,3.228737998719727,0.1399250173482164,55.83819454094589,0.9487596840771884,0.08595,0.0015778846599165583,704.4989597483413,1.793359301023572
1209,300L_GN_2.0_6.0_25_225_trail_7/GS_57.735_GN_27_L_300_Trail_7_mirror.png,7,300,57.735026918962575,27,3.228737998719727,0.1399250173482164,55.83819454094589,0.9487596840771884,0.08595,0.0015778846599165583,704.4989597483413,1.793359301023572
1210,300L_GN_2.0_6.0_25_225_trail_7/GS_57.735_GN_27_L_300_Trail_7_flip.png,7,300,57.735026918962575,27,3.228737998719727,0.1399250173482164,55.83819454094589,0.9487596840771884,0.08595,0.0015778846599165583,704.4989597483413,1.793359301023572
1211,300L_GN_2.0_6.0_25_225_trail_7/GS_57.735_GN_27_L_300_Trail_7_mirror_flip.png,7,300,57.735026918962575,27,3.228737998719727,0.1399250173482164,55.83819454094589,0.9487596840771884,0.08595,0.0015778846599165583,704.4989597483413,1.793359301023572
1212,300L_GN_2.0_6.0_25_225_trail_7/GS_56.695_GN_28_L_300_Trail_7_orig.png,7,300,56.69467095138408,28,3.5864038869059143,0.12432755560402514,52.93323448296765,0.4924658954432028,0.08415600000000001,0.0008619651965131788,682.3072887395915,3.0736732808660845
1213,300L_GN_2.0_6.0_25_225_trail_7/GS_56.695_GN_28_L_300_Trail_7_mirror.png,7,300,56.69467095138408,28,3.5864038869059143,0.12432755560402514,52.93323448296765,0.4924658954432028,0.08415600000000001,0.0008619651965131788,682.3072887395915,3.0736732808660845
1214,300L_GN_2.0_6.0_25_225_trail_7/GS_56.695_GN_28_L_300_Trail_7_flip.png,7,300,56.69467095138408,28,3.5864038869059143,0.12432755560402514,52.93323448296765,0.4924658954432028,0.08415600000000001,0.0008619651965131788,682.3072887395915,3.0736732808660845
1215,300L_GN_2.0_6.0_25_225_trail_7/GS_56.695_GN_28_L_300_Trail_7_mirror_flip.png,7,300,56.69467095138408,28,3.5864038869059143,0.12432755560402514,52.93323448296765,0.4924658954432028,0.08415600000000001,0.0008619651965131788,682.3072887395915,3.0736732808660845
1216,300L_GN_2.0_6.0_25_225_trail_7/GS_55.709_GN_29_L_300_Trail_7_orig.png,7,300,55.70860145311556,29,2.8833052163823023,0.12286417113539363,53.18396798059963,0.5456543609735338,0.08061199999999999,0.0006616464312606865,710.1868204956527,1.4145584965003855
1217,300L_GN_2.0_6.0_25_225_trail_7/GS_55.709_GN_29_L_300_Trail_7_mirror.png,7,300,55.70860145311556,29,2.8833052163823023,0.12286417113539363,53.18396798059963,0.5456543609735338,0.08061199999999999,0.0006616464312606865,710.1868204956527,1.4145584965003855
1218,300L_GN_2.0_6.0_25_225_trail_7/GS_55.709_GN_29_L_300_Trail_7_flip.png,7,300,55.70860145311556,29,2.8833052163823023,0.12286417113539363,53.18396798059963,0.5456543609735338,0.08061199999999999,0.0006616464312606865,710.1868204956527,1.4145584965003855
1219,300L_GN_2.0_6.0_25_225_trail_7/GS_55.709_GN_29_L_300_Trail_7_mirror_flip.png,7,300,55.70860145311556,29,2.8833052163823023,0.12286417113539363,53.18396798059963,0.5456543609735338,0.08061199999999999,0.0006616464312606865,710.1868204956527,1.4145584965003855
1220,300L_GN_2.0_6.0_25_225_trail_7/GS_54.772_GN_30_L_300_Trail_7_orig.png,7,300,54.772255750516614,30,3.1236537691438815,0.21040717720301824,54.01943158300874,0.9860028586075033,0.082014,0.001535716119600232,708.9668887917803,1.2167873170863517
1221,300L_GN_2.0_6.0_25_225_trail_7/GS_54.772_GN_30_L_300_Trail_7_mirror.png,7,300,54.772255750516614,30,3.1236537691438815,0.21040717720301824,54.01943158300874,0.9860028586075033,0.082014,0.001535716119600232,708.9668887917803,1.2167873170863517
1222,300L_GN_2.0_6.0_25_225_trail_7/GS_54.772_GN_30_L_300_Trail_7_flip.png,7,300,54.772255750516614,30,3.1236537691438815,0.21040717720301824,54.01943158300874,0.9860028586075033,0.082014,0.001535716119600232,708.9668887917803,1.2167873170863517
1223,300L_GN_2.0_6.0_25_225_trail_7/GS_54.772_GN_30_L_300_Trail_7_mirror_flip.png,7,300,54.772255750516614,30,3.1236537691438815,0.21040717720301824,54.01943158300874,0.9860028586075033,0.082014,0.001535716119600232,708.9668887917803,1.2167873170863517
1224,300L_GN_2.0_6.0_25_225_trail_7/GS_53.882_GN_31_L_300_Trail_7_orig.png,7,300,53.881590608032475,31,2.606657440006207,0.3928811835756275,50.31955624039351,0.5904720539086761,0.07958600000000002,0.0009015675238161615,683.5480110739231,2.268964885596756
1225,300L_GN_2.0_6.0_25_225_trail_7/GS_53.882_GN_31_L_300_Trail_7_mirror.png,7,300,53.881590608032475,31,2.606657440006207,0.3928811835756275,50.31955624039351,0.5904720539086761,0.07958600000000002,0.0009015675238161615,683.5480110739231,2.268964885596756
1226,300L_GN_2.0_6.0_25_225_trail_7/GS_53.882_GN_31_L_300_Trail_7_flip.png,7,300,53.881590608032475,31,2.606657440006207,0.3928811835756275,50.31955624039351,0.5904720539086761,0.07958600000000002,0.0009015675238161615,683.5480110739231,2.268964885596756
1227,300L_GN_2.0_6.0_25_225_trail_7/GS_53.882_GN_31_L_300_Trail_7_mirror_flip.png,7,300,53.881590608032475,31,2.606657440006207,0.3928811835756275,50.31955624039351,0.5904720539086761,0.07958600000000002,0.0009015675238161615,683.5480110739231,2.268964885596756
1228,300L_GN_2.0_6.0_25_225_trail_7/GS_53.033_GN_32_L_300_Trail_7_orig.png,7,300,53.03300858899106,32,3.2748451885053322,0.34467980881554205,50.61831507945037,1.1939931853965937,0.080084,0.002001425491993146,690.1441297361822,1.2677231739411958
1229,300L_GN_2.0_6.0_25_225_trail_7/GS_53.033_GN_32_L_300_Trail_7_mirror.png,7,300,53.03300858899106,32,3.2748451885053322,0.34467980881554205,50.61831507945037,1.1939931853965937,0.080084,0.002001425491993146,690.1441297361822,1.2677231739411958
1230,300L_GN_2.0_6.0_25_225_trail_7/GS_53.033_GN_32_L_300_Trail_7_flip.png,7,300,53.03300858899106,32,3.2748451885053322,0.34467980881554205,50.61831507945037,1.1939931853965937,0.080084,0.002001425491993146,690.1441297361822,1.2677231739411958
1231,300L_GN_2.0_6.0_25_225_trail_7/GS_53.033_GN_32_L_300_Trail_7_mirror_flip.png,7,300,53.03300858899106,32,3.2748451885053322,0.34467980881554205,50.61831507945037,1.1939931853965937,0.080084,0.002001425491993146,690.1441297361822,1.2677231739411958
1232,300L_GN_2.0_6.0_25_225_trail_7/GS_52.223_GN_33_L_300_Trail_7_orig.png,7,300,52.223296786709355,33,3.6058540262367886,0.617417980996411,58.924040703818264,0.5909564405410817,0.09083200000000002,0.0009685948585450984,709.5460291162192,1.2419253092605331
1233,300L_GN_2.0_6.0_25_225_trail_7/GS_52.223_GN_33_L_300_Trail_7_mirror.png,7,300,52.223296786709355,33,3.6058540262367886,0.617417980996411,58.924040703818264,0.5909564405410817,0.09083200000000002,0.0009685948585450984,709.5460291162192,1.2419253092605331
1234,300L_GN_2.0_6.0_25_225_trail_7/GS_52.223_GN_33_L_300_Trail_7_flip.png,7,300,52.223296786709355,33,3.6058540262367886,0.617417980996411,58.924040703818264,0.5909564405410817,0.09083200000000002,0.0009685948585450984,709.5460291162192,1.2419253092605331
1235,300L_GN_2.0_6.0_25_225_trail_7/GS_52.223_GN_33_L_300_Trail_7_mirror_flip.png,7,300,52.223296786709355,33,3.6058540262367886,0.617417980996411,58.924040703818264,0.5909564405410817,0.09083200000000002,0.0009685948585450984,709.5460291162192,1.2419253092605331
1236,300L_GN_2.0_6.0_25_225_trail_7/GS_51.45_GN_34_L_300_Trail_7_orig.png,7,300,51.44957554275265,34,3.191019315222164,0.24276819049615717,52.51344103258599,0.49290073200666945,0.082586,0.0007159497189048959,686.5605426250479,2.4122837917192324
1237,300L_GN_2.0_6.0_25_225_trail_7/GS_51.45_GN_34_L_300_Trail_7_mirror.png,7,300,51.44957554275265,34,3.191019315222164,0.24276819049615717,52.51344103258599,0.49290073200666945,0.082586,0.0007159497189048959,686.5605426250479,2.4122837917192324
1238,300L_GN_2.0_6.0_25_225_trail_7/GS_51.45_GN_34_L_300_Trail_7_flip.png,7,300,51.44957554275265,34,3.191019315222164,0.24276819049615717,52.51344103258599,0.49290073200666945,0.082586,0.0007159497189048959,686.5605426250479,2.4122837917192324
1239,300L_GN_2.0_6.0_25_225_trail_7/GS_51.45_GN_34_L_300_Trail_7_mirror_flip.png,7,300,51.44957554275265,34,3.191019315222164,0.24276819049615717,52.51344103258599,0.49290073200666945,0.082586,0.0007159497189048959,686.5605426250479,2.4122837917192324
1240,300L_GN_2.0_6.0_25_225_trail_7/GS_50.709_GN_35_L_300_Trail_7_orig.png,7,300,50.709255283710995,35,2.8467290730324617,0.21311087082231456,52.23246359042351,0.6566749698374432,0.08304000000000002,0.0010207840124139883,670.5077039825851,1.2312309113882522
1241,300L_GN_2.0_6.0_25_225_trail_7/GS_50.709_GN_35_L_300_Trail_7_mirror.png,7,300,50.709255283710995,35,2.8467290730324617,0.21311087082231456,52.23246359042351,0.6566749698374432,0.08304000000000002,0.0010207840124139883,670.5077039825851,1.2312309113882522
1242,300L_GN_2.0_6.0_25_225_trail_7/GS_50.709_GN_35_L_300_Trail_7_flip.png,7,300,50.709255283710995,35,2.8467290730324617,0.21311087082231456,52.23246359042351,0.6566749698374432,0.08304000000000002,0.0010207840124139883,670.5077039825851,1.2312309113882522
1243,300L_GN_2.0_6.0_25_225_trail_7/GS_50.709_GN_35_L_300_Trail_7_mirror_flip.png,7,300,50.709255283710995,35,2.8467290730324617,0.21311087082231456,52.23246359042351,0.6566749698374432,0.08304000000000002,0.0010207840124139883,670.5077039825851,1.2312309113882522
1244,300L_GN_2.0_6.0_25_225_trail_7/GS_50.0_GN_36_L_300_Trail_7_orig.png,7,300,50.0,36,2.9261394993643277,0.326825070077058,53.200794147737966,0.582720089706224,0.082994,0.000911276028434852,695.8863519255776,2.5524481068936073
1245,300L_GN_2.0_6.0_25_225_trail_7/GS_50.0_GN_36_L_300_Trail_7_mirror.png,7,300,50.0,36,2.9261394993643277,0.326825070077058,53.200794147737966,0.582720089706224,0.082994,0.000911276028434852,695.8863519255776,2.5524481068936073
1246,300L_GN_2.0_6.0_25_225_trail_7/GS_50.0_GN_36_L_300_Trail_7_flip.png,7,300,50.0,36,2.9261394993643277,0.326825070077058,53.200794147737966,0.582720089706224,0.082994,0.000911276028434852,695.8863519255776,2.5524481068936073
1247,300L_GN_2.0_6.0_25_225_trail_7/GS_50.0_GN_36_L_300_Trail_7_mirror_flip.png,7,300,50.0,36,2.9261394993643277,0.326825070077058,53.200794147737966,0.582720089706224,0.082994,0.000911276028434852,695.8863519255776,2.5524481068936073
1248,300L_GN_2.0_6.0_25_225_trail_7/GS_49.32_GN_37_L_300_Trail_7_orig.png,7,300,49.31969619160719,37,3.8773601317389064,0.24892544211600234,51.352493753786845,0.42760771043946705,0.08122,0.0007631775678045065,682.776404903011,1.05149391854313
1249,300L_GN_2.0_6.0_25_225_trail_7/GS_49.32_GN_37_L_300_Trail_7_mirror.png,7,300,49.31969619160719,37,3.8773601317389064,0.24892544211600234,51.352493753786845,0.42760771043946705,0.08122,0.0007631775678045065,682.776404903011,1.05149391854313
1250,300L_GN_2.0_6.0_25_225_trail_7/GS_49.32_GN_37_L_300_Trail_7_flip.png,7,300,49.31969619160719,37,3.8773601317389064,0.24892544211600234,51.352493753786845,0.42760771043946705,0.08122,0.0007631775678045065,682.776404903011,1.05149391854313
1251,300L_GN_2.0_6.0_25_225_trail_7/GS_49.32_GN_37_L_300_Trail_7_mirror_flip.png,7,300,49.31969619160719,37,3.8773601317389064,0.24892544211600234,51.352493753786845,0.42760771043946705,0.08122,0.0007631775678045065,682.776404903011,1.05149391854313
1252,300L_GN_2.0_6.0_25_225_trail_7/GS_48.666_GN_38_L_300_Trail_7_orig.png,7,300,48.666426339228764,38,4.089703486785546,0.8221180510997864,56.01054509654332,0.4663273882052696,0.09022200000000002,0.000772227945622274,664.3678961638145,1.2560978275165235
1253,300L_GN_2.0_6.0_25_225_trail_7/GS_48.666_GN_38_L_300_Trail_7_mirror.png,7,300,48.666426339228764,38,4.089703486785546,0.8221180510997864,56.01054509654332,0.4663273882052696,0.09022200000000002,0.000772227945622274,664.3678961638145,1.2560978275165235
1254,300L_GN_2.0_6.0_25_225_trail_7/GS_48.666_GN_38_L_300_Trail_7_flip.png,7,300,48.666426339228764,38,4.089703486785546,0.8221180510997864,56.01054509654332,0.4663273882052696,0.09022200000000002,0.000772227945622274,664.3678961638145,1.2560978275165235
1255,300L_GN_2.0_6.0_25_225_trail_7/GS_48.666_GN_38_L_300_Trail_7_mirror_flip.png,7,300,48.666426339228764,38,4.089703486785546,0.8221180510997864,56.01054509654332,0.4663273882052696,0.09022200000000002,0.000772227945622274,664.3678961638145,1.2560978275165235
1256,300L_GN_2.0_6.0_25_225_trail_7/GS_48.038_GN_39_L_300_Trail_7_orig.png,7,300,48.03844614152614,39,2.754669555831907,0.15857297474213683,51.234100800316455,1.2285878475703453,0.08220200000000001,0.001996220428710215,660.5843654756259,2.5289185115206068
1257,300L_GN_2.0_6.0_25_225_trail_7/GS_48.038_GN_39_L_300_Trail_7_mirror.png,7,300,48.03844614152614,39,2.754669555831907,0.15857297474213683,51.234100800316455,1.2285878475703453,0.08220200000000001,0.001996220428710215,660.5843654756259,2.5289185115206068
1258,300L_GN_2.0_6.0_25_225_trail_7/GS_48.038_GN_39_L_300_Trail_7_flip.png,7,300,48.03844614152614,39,2.754669555831907,0.15857297474213683,51.234100800316455,1.2285878475703453,0.08220200000000001,0.001996220428710215,660.5843654756259,2.5289185115206068
1259,300L_GN_2.0_6.0_25_225_trail_7/GS_48.038_GN_39_L_300_Trail_7_mirror_flip.png,7,300,48.03844614152614,39,2.754669555831907,0.15857297474213683,51.234100800316455,1.2285878475703453,0.08220200000000001,0.001996220428710215,660.5843654756259,2.5289185115206068
1260,300L_GN_2.0_6.0_25_225_trail_7/GS_47.434_GN_40_L_300_Trail_7_orig.png,7,300,47.43416490252569,40,3.8980088508086794,0.19527858024328115,46.88421280414511,1.426289558087591,0.077166,0.0022552924422344876,654.4989075144198,1.9856012980960311
1261,300L_GN_2.0_6.0_25_225_trail_7/GS_47.434_GN_40_L_300_Trail_7_mirror.png,7,300,47.43416490252569,40,3.8980088508086794,0.19527858024328115,46.88421280414511,1.426289558087591,0.077166,0.0022552924422344876,654.4989075144198,1.9856012980960311
1262,300L_GN_2.0_6.0_25_225_trail_7/GS_47.434_GN_40_L_300_Trail_7_flip.png,7,300,47.43416490252569,40,3.8980088508086794,0.19527858024328115,46.88421280414511,1.426289558087591,0.077166,0.0022552924422344876,654.4989075144198,1.9856012980960311
1263,300L_GN_2.0_6.0_25_225_trail_7/GS_47.434_GN_40_L_300_Trail_7_mirror_flip.png,7,300,47.43416490252569,40,3.8980088508086794,0.19527858024328115,46.88421280414511,1.426289558087591,0.077166,0.0022552924422344876,654.4989075144198,1.9856012980960311
1264,300L_GN_2.0_6.0_25_225_trail_7/GS_46.852_GN_41_L_300_Trail_7_orig.png,7,300,46.85212856658182,41,2.8361986799891032,0.2098410831178756,51.98763652220599,0.48957735210067843,0.08389200000000001,0.0006667953209193923,661.7365280689884,0.6087084036834739
1265,300L_GN_2.0_6.0_25_225_trail_7/GS_46.852_GN_41_L_300_Trail_7_mirror.png,7,300,46.85212856658182,41,2.8361986799891032,0.2098410831178756,51.98763652220599,0.48957735210067843,0.08389200000000001,0.0006667953209193923,661.7365280689884,0.6087084036834739
1266,300L_GN_2.0_6.0_25_225_trail_7/GS_46.852_GN_41_L_300_Trail_7_flip.png,7,300,46.85212856658182,41,2.8361986799891032,0.2098410831178756,51.98763652220599,0.48957735210067843,0.08389200000000001,0.0006667953209193923,661.7365280689884,0.6087084036834739
1267,300L_GN_2.0_6.0_25_225_trail_7/GS_46.852_GN_41_L_300_Trail_7_mirror_flip.png,7,300,46.85212856658182,41,2.8361986799891032,0.2098410831178756,51.98763652220599,0.48957735210067843,0.08389200000000001,0.0006667953209193923,661.7365280689884,0.6087084036834739
1268,300L_GN_2.0_6.0_25_225_trail_7/GS_45.75_GN_43_L_300_Trail_7_orig.png,7,300,45.7495710997814,43,2.641551192919726,0.3591189681836438,48.95741370555869,0.8261642800553508,0.079238,0.001237229162281592,652.2165402281577,2.4499734635725505
1269,300L_GN_2.0_6.0_25_225_trail_7/GS_45.75_GN_43_L_300_Trail_7_mirror.png,7,300,45.7495710997814,43,2.641551192919726,0.3591189681836438,48.95741370555869,0.8261642800553508,0.079238,0.001237229162281592,652.2165402281577,2.4499734635725505
1270,300L_GN_2.0_6.0_25_225_trail_7/GS_45.75_GN_43_L_300_Trail_7_flip.png,7,300,45.7495710997814,43,2.641551192919726,0.3591189681836438,48.95741370555869,0.8261642800553508,0.079238,0.001237229162281592,652.2165402281577,2.4499734635725505
1271,300L_GN_2.0_6.0_25_225_trail_7/GS_45.75_GN_43_L_300_Trail_7_mirror_flip.png,7,300,45.7495710997814,43,2.641551192919726,0.3591189681836438,48.95741370555869,0.8261642800553508,0.079238,0.001237229162281592,652.2165402281577,2.4499734635725505
1272,300L_GN_2.0_6.0_25_225_trail_7/GS_45.227_GN_44_L_300_Trail_7_orig.png,7,300,45.22670168666454,44,3.8157456082234886,1.5585493110012687,55.58149566215866,0.6278240154902759,0.09120800000000003,0.0013584903385744033,658.3642597578295,2.341657241766842
1273,300L_GN_2.0_6.0_25_225_trail_7/GS_45.227_GN_44_L_300_Trail_7_mirror.png,7,300,45.22670168666454,44,3.8157456082234886,1.5585493110012687,55.58149566215866,0.6278240154902759,0.09120800000000003,0.0013584903385744033,658.3642597578295,2.341657241766842
1274,300L_GN_2.0_6.0_25_225_trail_7/GS_45.227_GN_44_L_300_Trail_7_flip.png,7,300,45.22670168666454,44,3.8157456082234886,1.5585493110012687,55.58149566215866,0.6278240154902759,0.09120800000000003,0.0013584903385744033,658.3642597578295,2.341657241766842
1275,300L_GN_2.0_6.0_25_225_trail_7/GS_45.227_GN_44_L_300_Trail_7_mirror_flip.png,7,300,45.22670168666454,44,3.8157456082234886,1.5585493110012687,55.58149566215866,0.6278240154902759,0.09120800000000003,0.0013584903385744033,658.3642597578295,2.341657241766842
1276,300L_GN_2.0_6.0_25_225_trail_7/GS_43.759_GN_47_L_300_Trail_7_orig.png,7,300,43.75949744936837,47,3.170038723936851,0.3593373110468398,54.438171736345375,1.1835529414296897,0.086368,0.0017710381136497337,669.9467335167737,2.005311139361008
1277,300L_GN_2.0_6.0_25_225_trail_7/GS_43.759_GN_47_L_300_Trail_7_mirror.png,7,300,43.75949744936837,47,3.170038723936851,0.3593373110468398,54.438171736345375,1.1835529414296897,0.086368,0.0017710381136497337,669.9467335167737,2.005311139361008
1278,300L_GN_2.0_6.0_25_225_trail_7/GS_43.759_GN_47_L_300_Trail_7_flip.png,7,300,43.75949744936837,47,3.170038723936851,0.3593373110468398,54.438171736345375,1.1835529414296897,0.086368,0.0017710381136497337,669.9467335167737,2.005311139361008
1279,300L_GN_2.0_6.0_25_225_trail_7/GS_43.759_GN_47_L_300_Trail_7_mirror_flip.png,7,300,43.75949744936837,47,3.170038723936851,0.3593373110468398,54.438171736345375,1.1835529414296897,0.086368,0.0017710381136497337,669.9467335167737,2.005311139361008
1280,300L_GN_2.0_6.0_25_225_trail_7/GS_43.301_GN_48_L_300_Trail_7_orig.png,7,300,43.30127018922194,48,3.4513633251133924,0.7560365178890933,52.1017310314709,0.4507545322698312,0.085254,0.0006877964815263285,664.1224553005038,1.8743198974833841
1281,300L_GN_2.0_6.0_25_225_trail_7/GS_43.301_GN_48_L_300_Trail_7_mirror.png,7,300,43.30127018922194,48,3.4513633251133924,0.7560365178890933,52.1017310314709,0.4507545322698312,0.085254,0.0006877964815263285,664.1224553005038,1.8743198974833841
1282,300L_GN_2.0_6.0_25_225_trail_7/GS_43.301_GN_48_L_300_Trail_7_flip.png,7,300,43.30127018922194,48,3.4513633251133924,0.7560365178890933,52.1017310314709,0.4507545322698312,0.085254,0.0006877964815263285,664.1224553005038,1.8743198974833841
1283,300L_GN_2.0_6.0_25_225_trail_7/GS_43.301_GN_48_L_300_Trail_7_mirror_flip.png,7,300,43.30127018922194,48,3.4513633251133924,0.7560365178890933,52.1017310314709,0.4507545322698312,0.085254,0.0006877964815263285,664.1224553005038,1.8743198974833841
1284,300L_GN_2.0_6.0_25_225_trail_7/GS_42.426_GN_50_L_300_Trail_7_orig.png,7,300,42.42640687119285,50,2.9775528478512783,0.21766664162782032,50.705735423226585,0.5962404924066902,0.08246400000000001,0.0006826009082912232,666.316533321947,1.0900536375781273
1285,300L_GN_2.0_6.0_25_225_trail_7/GS_42.426_GN_50_L_300_Trail_7_mirror.png,7,300,42.42640687119285,50,2.9775528478512783,0.21766664162782032,50.705735423226585,0.5962404924066902,0.08246400000000001,0.0006826009082912232,666.316533321947,1.0900536375781273
1286,300L_GN_2.0_6.0_25_225_trail_7/GS_42.426_GN_50_L_300_Trail_7_flip.png,7,300,42.42640687119285,50,2.9775528478512783,0.21766664162782032,50.705735423226585,0.5962404924066902,0.08246400000000001,0.0006826009082912232,666.316533321947,1.0900536375781273
1287,300L_GN_2.0_6.0_25_225_trail_7/GS_42.426_GN_50_L_300_Trail_7_mirror_flip.png,7,300,42.42640687119285,50,2.9775528478512783,0.21766664162782032,50.705735423226585,0.5962404924066902,0.08246400000000001,0.0006826009082912232,666.316533321947,1.0900536375781273
1288,300L_GN_2.0_6.0_25_225_trail_7/GS_41.603_GN_52_L_300_Trail_7_orig.png,7,300,41.60251471689219,52,3.353193863790979,0.33021318151395207,49.57623894208292,0.4376608666186449,0.08187,0.0005406292629889741,648.0988179282756,1.3655655632514372
1289,300L_GN_2.0_6.0_25_225_trail_7/GS_41.603_GN_52_L_300_Trail_7_mirror.png,7,300,41.60251471689219,52,3.353193863790979,0.33021318151395207,49.57623894208292,0.4376608666186449,0.08187,0.0005406292629889741,648.0988179282756,1.3655655632514372
1290,300L_GN_2.0_6.0_25_225_trail_7/GS_41.603_GN_52_L_300_Trail_7_flip.png,7,300,41.60251471689219,52,3.353193863790979,0.33021318151395207,49.57623894208292,0.4376608666186449,0.08187,0.0005406292629889741,648.0988179282756,1.3655655632514372
1291,300L_GN_2.0_6.0_25_225_trail_7/GS_41.603_GN_52_L_300_Trail_7_mirror_flip.png,7,300,41.60251471689219,52,3.353193863790979,0.33021318151395207,49.57623894208292,0.4376608666186449,0.08187,0.0005406292629889741,648.0988179282756,1.3655655632514372
1292,300L_GN_2.0_6.0_25_225_trail_7/GS_41.208_GN_53_L_300_Trail_7_orig.png,7,300,41.20816918460671,53,2.5119528408534157,0.2087416036274337,48.43149899179505,0.499064473251831,0.07751,0.0008660484974872898,665.495769067738,1.0103655420987385
1293,300L_GN_2.0_6.0_25_225_trail_7/GS_41.208_GN_53_L_300_Trail_7_mirror.png,7,300,41.20816918460671,53,2.5119528408534157,0.2087416036274337,48.43149899179505,0.499064473251831,0.07751,0.0008660484974872898,665.495769067738,1.0103655420987385
1294,300L_GN_2.0_6.0_25_225_trail_7/GS_41.208_GN_53_L_300_Trail_7_flip.png,7,300,41.20816918460671,53,2.5119528408534157,0.2087416036274337,48.43149899179505,0.499064473251831,0.07751,0.0008660484974872898,665.495769067738,1.0103655420987385
1295,300L_GN_2.0_6.0_25_225_trail_7/GS_41.208_GN_53_L_300_Trail_7_mirror_flip.png,7,300,41.20816918460671,53,2.5119528408534157,0.2087416036274337,48.43149899179505,0.499064473251831,0.07751,0.0008660484974872898,665.495769067738,1.0103655420987385
1296,300L_GN_2.0_6.0_25_225_trail_7/GS_40.089_GN_56_L_300_Trail_7_orig.png,7,300,40.08918628686366,56,3.1828264138929923,0.5408593654404671,57.220772856621956,0.15542333862440896,0.09246,0.00024673872821265834,671.2408449236176,2.162678090709562
1297,300L_GN_2.0_6.0_25_225_trail_7/GS_40.089_GN_56_L_300_Trail_7_mirror.png,7,300,40.08918628686366,56,3.1828264138929923,0.5408593654404671,57.220772856621956,0.15542333862440896,0.09246,0.00024673872821265834,671.2408449236176,2.162678090709562
1298,300L_GN_2.0_6.0_25_225_trail_7/GS_40.089_GN_56_L_300_Trail_7_flip.png,7,300,40.08918628686366,56,3.1828264138929923,0.5408593654404671,57.220772856621956,0.15542333862440896,0.09246,0.00024673872821265834,671.2408449236176,2.162678090709562
1299,300L_GN_2.0_6.0_25_225_trail_7/GS_40.089_GN_56_L_300_Trail_7_mirror_flip.png,7,300,40.08918628686366,56,3.1828264138929923,0.5408593654404671,57.220772856621956,0.15542333862440896,0.09246,0.00024673872821265834,671.2408449236176,2.162678090709562
1300,300L_GN_2.0_6.0_25_225_trail_7/GS_39.392_GN_58_L_300_Trail_7_orig.png,7,300,39.391929857916764,58,3.477099239068175,0.15346051350471826,45.96236587277603,1.6571783845839207,0.07511000000000001,0.002597775971865165,648.552454006234,1.5035586590019965
1301,300L_GN_2.0_6.0_25_225_trail_7/GS_39.392_GN_58_L_300_Trail_7_mirror.png,7,300,39.391929857916764,58,3.477099239068175,0.15346051350471826,45.96236587277603,1.6571783845839207,0.07511000000000001,0.002597775971865165,648.552454006234,1.5035586590019965
1302,300L_GN_2.0_6.0_25_225_trail_7/GS_39.392_GN_58_L_300_Trail_7_flip.png,7,300,39.391929857916764,58,3.477099239068175,0.15346051350471826,45.96236587277603,1.6571783845839207,0.07511000000000001,0.002597775971865165,648.552454006234,1.5035586590019965
1303,300L_GN_2.0_6.0_25_225_trail_7/GS_39.392_GN_58_L_300_Trail_7_mirror_flip.png,7,300,39.391929857916764,58,3.477099239068175,0.15346051350471826,45.96236587277603,1.6571783845839207,0.07511000000000001,0.002597775971865165,648.552454006234,1.5035586590019965
1304,300L_GN_2.0_6.0_25_225_trail_7/GS_38.73_GN_60_L_300_Trail_7_orig.png,7,300,38.72983346207417,60,2.737464828723031,0.22203703125364233,49.745077203638736,0.6015826872926168,0.083114,0.0008555840110708023,627.4726902764636,2.692228644240604
1305,300L_GN_2.0_6.0_25_225_trail_7/GS_38.73_GN_60_L_300_Trail_7_mirror.png,7,300,38.72983346207417,60,2.737464828723031,0.22203703125364233,49.745077203638736,0.6015826872926168,0.083114,0.0008555840110708023,627.4726902764636,2.692228644240604
1306,300L_GN_2.0_6.0_25_225_trail_7/GS_38.73_GN_60_L_300_Trail_7_flip.png,7,300,38.72983346207417,60,2.737464828723031,0.22203703125364233,49.745077203638736,0.6015826872926168,0.083114,0.0008555840110708023,627.4726902764636,2.692228644240604
1307,300L_GN_2.0_6.0_25_225_trail_7/GS_38.73_GN_60_L_300_Trail_7_mirror_flip.png,7,300,38.72983346207417,60,2.737464828723031,0.22203703125364233,49.745077203638736,0.6015826872926168,0.083114,0.0008555840110708023,627.4726902764636,2.692228644240604
1308,300L_GN_2.0_6.0_25_225_trail_7/GS_38.1_GN_62_L_300_Trail_7_orig.png,7,300,38.10003810005715,62,2.7867765304946057,0.47452687018554107,50.34617670924041,1.1969094416971002,0.08218800000000001,0.0019298849706653534,646.5394120258245,3.6493990855334304
1309,300L_GN_2.0_6.0_25_225_trail_7/GS_38.1_GN_62_L_300_Trail_7_mirror.png,7,300,38.10003810005715,62,2.7867765304946057,0.47452687018554107,50.34617670924041,1.1969094416971002,0.08218800000000001,0.0019298849706653534,646.5394120258245,3.6493990855334304
1310,300L_GN_2.0_6.0_25_225_trail_7/GS_38.1_GN_62_L_300_Trail_7_flip.png,7,300,38.10003810005715,62,2.7867765304946057,0.47452687018554107,50.34617670924041,1.1969094416971002,0.08218800000000001,0.0019298849706653534,646.5394120258245,3.6493990855334304
1311,300L_GN_2.0_6.0_25_225_trail_7/GS_38.1_GN_62_L_300_Trail_7_mirror_flip.png,7,300,38.10003810005715,62,2.7867765304946057,0.47452687018554107,50.34617670924041,1.1969094416971002,0.08218800000000001,0.0019298849706653534,646.5394120258245,3.6493990855334304
1312,300L_GN_2.0_6.0_25_225_trail_7/GS_37.5_GN_64_L_300_Trail_7_orig.png,7,300,37.5,64,3.1787995087025918,0.19058458429903244,51.67820178044643,0.45001163782568643,0.08529600000000001,0.0010175578607627168,651.9707352832896,1.4622156275875153
1313,300L_GN_2.0_6.0_25_225_trail_7/GS_37.5_GN_64_L_300_Trail_7_mirror.png,7,300,37.5,64,3.1787995087025918,0.19058458429903244,51.67820178044643,0.45001163782568643,0.08529600000000001,0.0010175578607627168,651.9707352832896,1.4622156275875153
1314,300L_GN_2.0_6.0_25_225_trail_7/GS_37.5_GN_64_L_300_Trail_7_flip.png,7,300,37.5,64,3.1787995087025918,0.19058458429903244,51.67820178044643,0.45001163782568643,0.08529600000000001,0.0010175578607627168,651.9707352832896,1.4622156275875153
1315,300L_GN_2.0_6.0_25_225_trail_7/GS_37.5_GN_64_L_300_Trail_7_mirror_flip.png,7,300,37.5,64,3.1787995087025918,0.19058458429903244,51.67820178044643,0.45001163782568643,0.08529600000000001,0.0010175578607627168,651.9707352832896,1.4622156275875153
1316,300L_GN_2.0_6.0_25_225_trail_7/GS_36.927_GN_66_L_300_Trail_7_orig.png,7,300,36.927447293799815,66,3.6567266124620126,0.2478564775285989,54.19663831654115,0.4332008549690992,0.08961,0.0007264433907745306,661.9187551761512,1.8112934311743374
1317,300L_GN_2.0_6.0_25_225_trail_7/GS_36.927_GN_66_L_300_Trail_7_mirror.png,7,300,36.927447293799815,66,3.6567266124620126,0.2478564775285989,54.19663831654115,0.4332008549690992,0.08961,0.0007264433907745306,661.9187551761512,1.8112934311743374
1318,300L_GN_2.0_6.0_25_225_trail_7/GS_36.927_GN_66_L_300_Trail_7_flip.png,7,300,36.927447293799815,66,3.6567266124620126,0.2478564775285989,54.19663831654115,0.4332008549690992,0.08961,0.0007264433907745306,661.9187551761512,1.8112934311743374
1319,300L_GN_2.0_6.0_25_225_trail_7/GS_36.927_GN_66_L_300_Trail_7_mirror_flip.png,7,300,36.927447293799815,66,3.6567266124620126,0.2478564775285989,54.19663831654115,0.4332008549690992,0.08961,0.0007264433907745306,661.9187551761512,1.8112934311743374
1320,300L_GN_2.0_6.0_25_225_trail_7/GS_36.116_GN_69_L_300_Trail_7_orig.png,7,300,36.11575592573076,69,3.43736142151786,0.16380347422509792,48.45776802616116,0.6108843804574445,0.08065,0.0011100990946757835,637.6632723123599,2.5286519446562696
1321,300L_GN_2.0_6.0_25_225_trail_7/GS_36.116_GN_69_L_300_Trail_7_mirror.png,7,300,36.11575592573076,69,3.43736142151786,0.16380347422509792,48.45776802616116,0.6108843804574445,0.08065,0.0011100990946757835,637.6632723123599,2.5286519446562696
1322,300L_GN_2.0_6.0_25_225_trail_7/GS_36.116_GN_69_L_300_Trail_7_flip.png,7,300,36.11575592573076,69,3.43736142151786,0.16380347422509792,48.45776802616116,0.6108843804574445,0.08065,0.0011100990946757835,637.6632723123599,2.5286519446562696
1323,300L_GN_2.0_6.0_25_225_trail_7/GS_36.116_GN_69_L_300_Trail_7_mirror_flip.png,7,300,36.11575592573076,69,3.43736142151786,0.16380347422509792,48.45776802616116,0.6108843804574445,0.08065,0.0011100990946757835,637.6632723123599,2.5286519446562696
1324,300L_GN_2.0_6.0_25_225_trail_7/GS_34.874_GN_74_L_300_Trail_7_orig.png,7,300,34.87429162314579,74,2.3710729586787807,0.2500368539569803,42.87219702673908,0.9213564011341445,0.07173,0.0017615447766094387,638.7498931990501,1.2470285610900242
1325,300L_GN_2.0_6.0_25_225_trail_7/GS_34.874_GN_74_L_300_Trail_7_mirror.png,7,300,34.87429162314579,74,2.3710729586787807,0.2500368539569803,42.87219702673908,0.9213564011341445,0.07173,0.0017615447766094387,638.7498931990501,1.2470285610900242
1326,300L_GN_2.0_6.0_25_225_trail_7/GS_34.874_GN_74_L_300_Trail_7_flip.png,7,300,34.87429162314579,74,2.3710729586787807,0.2500368539569803,42.87219702673908,0.9213564011341445,0.07173,0.0017615447766094387,638.7498931990501,1.2470285610900242
1327,300L_GN_2.0_6.0_25_225_trail_7/GS_34.874_GN_74_L_300_Trail_7_mirror_flip.png,7,300,34.87429162314579,74,2.3710729586787807,0.2500368539569803,42.87219702673908,0.9213564011341445,0.07173,0.0017615447766094387,638.7498931990501,1.2470285610900242
1328,300L_GN_2.0_6.0_25_225_trail_7/GS_33.968_GN_78_L_300_Trail_7_orig.png,7,300,33.96831102433787,78,3.714704519948383,0.7297297587259391,51.777360635110526,0.5235518650295201,0.088122,0.0006806585046849868,620.0401479073162,2.7036132520126475
1329,300L_GN_2.0_6.0_25_225_trail_7/GS_33.968_GN_78_L_300_Trail_7_mirror.png,7,300,33.96831102433787,78,3.714704519948383,0.7297297587259391,51.777360635110526,0.5235518650295201,0.088122,0.0006806585046849868,620.0401479073162,2.7036132520126475
1330,300L_GN_2.0_6.0_25_225_trail_7/GS_33.968_GN_78_L_300_Trail_7_flip.png,7,300,33.96831102433787,78,3.714704519948383,0.7297297587259391,51.777360635110526,0.5235518650295201,0.088122,0.0006806585046849868,620.0401479073162,2.7036132520126475
1331,300L_GN_2.0_6.0_25_225_trail_7/GS_33.968_GN_78_L_300_Trail_7_mirror_flip.png,7,300,33.96831102433787,78,3.714704519948383,0.7297297587259391,51.777360635110526,0.5235518650295201,0.088122,0.0006806585046849868,620.0401479073162,2.7036132520126475
1332,300L_GN_2.0_6.0_25_225_trail_7/GS_33.129_GN_82_L_300_Trail_7_orig.png,7,300,33.12945782245396,82,2.970466924237948,0.24274513528874345,45.589449680342646,0.8371075438288689,0.07574,0.0016658691425199084,638.211448045173,1.1201584672006522
1333,300L_GN_2.0_6.0_25_225_trail_7/GS_33.129_GN_82_L_300_Trail_7_mirror.png,7,300,33.12945782245396,82,2.970466924237948,0.24274513528874345,45.589449680342646,0.8371075438288689,0.07574,0.0016658691425199084,638.211448045173,1.1201584672006522
1334,300L_GN_2.0_6.0_25_225_trail_7/GS_33.129_GN_82_L_300_Trail_7_flip.png,7,300,33.12945782245396,82,2.970466924237948,0.24274513528874345,45.589449680342646,0.8371075438288689,0.07574,0.0016658691425199084,638.211448045173,1.1201584672006522
1335,300L_GN_2.0_6.0_25_225_trail_7/GS_33.129_GN_82_L_300_Trail_7_mirror_flip.png,7,300,33.12945782245396,82,2.970466924237948,0.24274513528874345,45.589449680342646,0.8371075438288689,0.07574,0.0016658691425199084,638.211448045173,1.1201584672006522
1336,300L_GN_2.0_6.0_25_225_trail_7/GS_32.163_GN_87_L_300_Trail_7_orig.png,7,300,32.163376045133845,87,3.484065389451311,0.7486419531983213,51.250419023473455,0.9629458284909943,0.085218,0.0015824082911815147,632.1971017644216,3.7147041078296374
1337,300L_GN_2.0_6.0_25_225_trail_7/GS_32.163_GN_87_L_300_Trail_7_mirror.png,7,300,32.163376045133845,87,3.484065389451311,0.7486419531983213,51.250419023473455,0.9629458284909943,0.085218,0.0015824082911815147,632.1971017644216,3.7147041078296374
1338,300L_GN_2.0_6.0_25_225_trail_7/GS_32.163_GN_87_L_300_Trail_7_flip.png,7,300,32.163376045133845,87,3.484065389451311,0.7486419531983213,51.250419023473455,0.9629458284909943,0.085218,0.0015824082911815147,632.1971017644216,3.7147041078296374
1339,300L_GN_2.0_6.0_25_225_trail_7/GS_32.163_GN_87_L_300_Trail_7_mirror_flip.png,7,300,32.163376045133845,87,3.484065389451311,0.7486419531983213,51.250419023473455,0.9629458284909943,0.085218,0.0015824082911815147,632.1971017644216,3.7147041078296374
1340,300L_GN_2.0_6.0_25_225_trail_7/GS_31.449_GN_91_L_300_Trail_7_orig.png,7,300,31.44854510165755,91,2.3456084416364664,0.3262446431245178,50.816649113838096,0.8296246156375142,0.08669600000000002,0.0015365493809181637,604.5365244863885,2.134552681211835
1341,300L_GN_2.0_6.0_25_225_trail_7/GS_31.449_GN_91_L_300_Trail_7_mirror.png,7,300,31.44854510165755,91,2.3456084416364664,0.3262446431245178,50.816649113838096,0.8296246156375142,0.08669600000000002,0.0015365493809181637,604.5365244863885,2.134552681211835
1342,300L_GN_2.0_6.0_25_225_trail_7/GS_31.449_GN_91_L_300_Trail_7_flip.png,7,300,31.44854510165755,91,2.3456084416364664,0.3262446431245178,50.816649113838096,0.8296246156375142,0.08669600000000002,0.0015365493809181637,604.5365244863885,2.134552681211835
1343,300L_GN_2.0_6.0_25_225_trail_7/GS_31.449_GN_91_L_300_Trail_7_mirror_flip.png,7,300,31.44854510165755,91,2.3456084416364664,0.3262446431245178,50.816649113838096,0.8296246156375142,0.08669600000000002,0.0015365493809181637,604.5365244863885,2.134552681211835
1344,300L_GN_2.0_6.0_25_225_trail_7/GS_30.779_GN_95_L_300_Trail_7_orig.png,7,300,30.779350562554626,95,1.9246111253245366,0.8829366110777322,53.604519410007796,0.9200574840911239,0.09292199999999999,0.0017047510082120504,604.5172721929978,1.9410705216416
1345,300L_GN_2.0_6.0_25_225_trail_7/GS_30.779_GN_95_L_300_Trail_7_mirror.png,7,300,30.779350562554626,95,1.9246111253245366,0.8829366110777322,53.604519410007796,0.9200574840911239,0.09292199999999999,0.0017047510082120504,604.5172721929978,1.9410705216416
1346,300L_GN_2.0_6.0_25_225_trail_7/GS_30.779_GN_95_L_300_Trail_7_flip.png,7,300,30.779350562554626,95,1.9246111253245366,0.8829366110777322,53.604519410007796,0.9200574840911239,0.09292199999999999,0.0017047510082120504,604.5172721929978,1.9410705216416
1347,300L_GN_2.0_6.0_25_225_trail_7/GS_30.779_GN_95_L_300_Trail_7_mirror_flip.png,7,300,30.779350562554626,95,1.9246111253245366,0.8829366110777322,53.604519410007796,0.9200574840911239,0.09292199999999999,0.0017047510082120504,604.5172721929978,1.9410705216416
1348,300L_GN_2.0_6.0_25_225_trail_7/GS_30.0_GN_100_L_300_Trail_7_orig.png,7,300,30.0,100,3.3295668298860255,0.22937455568492804,49.64231685131315,0.4814683257802619,0.085138,0.0007076270203998665,614.2788035742633,1.9591678134020518
1349,300L_GN_2.0_6.0_25_225_trail_7/GS_30.0_GN_100_L_300_Trail_7_mirror.png,7,300,30.0,100,3.3295668298860255,0.22937455568492804,49.64231685131315,0.4814683257802619,0.085138,0.0007076270203998665,614.2788035742633,1.9591678134020518
1350,300L_GN_2.0_6.0_25_225_trail_7/GS_30.0_GN_100_L_300_Trail_7_flip.png,7,300,30.0,100,3.3295668298860255,0.22937455568492804,49.64231685131315,0.4814683257802619,0.085138,0.0007076270203998665,614.2788035742633,1.9591678134020518
1351,300L_GN_2.0_6.0_25_225_trail_7/GS_30.0_GN_100_L_300_Trail_7_mirror_flip.png,7,300,30.0,100,3.3295668298860255,0.22937455568492804,49.64231685131315,0.4814683257802619,0.085138,0.0007076270203998665,614.2788035742633,1.9591678134020518
1352,300L_GN_2.0_6.0_25_225_trail_7/GS_29.139_GN_106_L_300_Trail_7_orig.png,7,300,29.138575870717926,106,2.53162160272534,0.1562379204411176,47.663313286903254,0.4280638163555065,0.08250600000000001,0.0007921262525633164,595.8510383621749,2.4871349172517783
1353,300L_GN_2.0_6.0_25_225_trail_7/GS_29.139_GN_106_L_300_Trail_7_mirror.png,7,300,29.138575870717926,106,2.53162160272534,0.1562379204411176,47.663313286903254,0.4280638163555065,0.08250600000000001,0.0007921262525633164,595.8510383621749,2.4871349172517783
1354,300L_GN_2.0_6.0_25_225_trail_7/GS_29.139_GN_106_L_300_Trail_7_flip.png,7,300,29.138575870717926,106,2.53162160272534,0.1562379204411176,47.663313286903254,0.4280638163555065,0.08250600000000001,0.0007921262525633164,595.8510383621749,2.4871349172517783
1355,300L_GN_2.0_6.0_25_225_trail_7/GS_29.139_GN_106_L_300_Trail_7_mirror_flip.png,7,300,29.138575870717926,106,2.53162160272534,0.1562379204411176,47.663313286903254,0.4280638163555065,0.08250600000000001,0.0007921262525633164,595.8510383621749,2.4871349172517783
1356,300L_GN_2.0_6.0_25_225_trail_7/GS_28.347_GN_112_L_300_Trail_7_orig.png,7,300,28.34733547569204,112,2.7019840558815846,0.5167610440422564,49.18720167946919,0.6943922590846985,0.082884,0.001074664598840028,616.8063810032716,2.6002548462807633
1357,300L_GN_2.0_6.0_25_225_trail_7/GS_28.347_GN_112_L_300_Trail_7_mirror.png,7,300,28.34733547569204,112,2.7019840558815846,0.5167610440422564,49.18720167946919,0.6943922590846985,0.082884,0.001074664598840028,616.8063810032716,2.6002548462807633
1358,300L_GN_2.0_6.0_25_225_trail_7/GS_28.347_GN_112_L_300_Trail_7_flip.png,7,300,28.34733547569204,112,2.7019840558815846,0.5167610440422564,49.18720167946919,0.6943922590846985,0.082884,0.001074664598840028,616.8063810032716,2.6002548462807633
1359,300L_GN_2.0_6.0_25_225_trail_7/GS_28.347_GN_112_L_300_Trail_7_mirror_flip.png,7,300,28.34733547569204,112,2.7019840558815846,0.5167610440422564,49.18720167946919,0.6943922590846985,0.082884,0.001074664598840028,616.8063810032716,2.6002548462807633
1360,300L_GN_2.0_6.0_25_225_trail_7/GS_27.501_GN_119_L_300_Trail_7_orig.png,7,300,27.50095491084634,119,2.3340009680795126,0.3511913340744209,51.48936666806695,0.28429384585468775,0.08702000000000001,0.0008373052012259295,616.8675784135127,1.6035031339463293
1361,300L_GN_2.0_6.0_25_225_trail_7/GS_27.501_GN_119_L_300_Trail_7_mirror.png,7,300,27.50095491084634,119,2.3340009680795126,0.3511913340744209,51.48936666806695,0.28429384585468775,0.08702000000000001,0.0008373052012259295,616.8675784135127,1.6035031339463293
1362,300L_GN_2.0_6.0_25_225_trail_7/GS_27.501_GN_119_L_300_Trail_7_flip.png,7,300,27.50095491084634,119,2.3340009680795126,0.3511913340744209,51.48936666806695,0.28429384585468775,0.08702000000000001,0.0008373052012259295,616.8675784135127,1.6035031339463293
1363,300L_GN_2.0_6.0_25_225_trail_7/GS_27.501_GN_119_L_300_Trail_7_mirror_flip.png,7,300,27.50095491084634,119,2.3340009680795126,0.3511913340744209,51.48936666806695,0.28429384585468775,0.08702000000000001,0.0008373052012259295,616.8675784135127,1.6035031339463293
1364,300L_GN_2.0_6.0_25_225_trail_7/GS_26.726_GN_126_L_300_Trail_7_orig.png,7,300,26.726124191242437,126,3.0527166502329894,0.3818967856799997,50.0207755183239,0.8501825712425596,0.08449200000000001,0.002001653316636029,614.3409173933426,1.2601309405748493
1365,300L_GN_2.0_6.0_25_225_trail_7/GS_26.726_GN_126_L_300_Trail_7_mirror.png,7,300,26.726124191242437,126,3.0527166502329894,0.3818967856799997,50.0207755183239,0.8501825712425596,0.08449200000000001,0.002001653316636029,614.3409173933426,1.2601309405748493
1366,300L_GN_2.0_6.0_25_225_trail_7/GS_26.726_GN_126_L_300_Trail_7_flip.png,7,300,26.726124191242437,126,3.0527166502329894,0.3818967856799997,50.0207755183239,0.8501825712425596,0.08449200000000001,0.002001653316636029,614.3409173933426,1.2601309405748493
1367,300L_GN_2.0_6.0_25_225_trail_7/GS_26.726_GN_126_L_300_Trail_7_mirror_flip.png,7,300,26.726124191242437,126,3.0527166502329894,0.3818967856799997,50.0207755183239,0.8501825712425596,0.08449200000000001,0.002001653316636029,614.3409173933426,1.2601309405748493
1368,300L_GN_2.0_6.0_25_225_trail_7/GS_26.112_GN_132_L_300_Trail_7_orig.png,7,300,26.111648393354677,132,3.73282787592093,0.2589718996898293,48.06212206398274,0.19546296478374572,0.082674,0.0005479270024373631,620.4666954979265,2.8647627362535673
1369,300L_GN_2.0_6.0_25_225_trail_7/GS_26.112_GN_132_L_300_Trail_7_mirror.png,7,300,26.111648393354677,132,3.73282787592093,0.2589718996898293,48.06212206398274,0.19546296478374572,0.082674,0.0005479270024373631,620.4666954979265,2.8647627362535673
1370,300L_GN_2.0_6.0_25_225_trail_7/GS_26.112_GN_132_L_300_Trail_7_flip.png,7,300,26.111648393354677,132,3.73282787592093,0.2589718996898293,48.06212206398274,0.19546296478374572,0.082674,0.0005479270024373631,620.4666954979265,2.8647627362535673
1371,300L_GN_2.0_6.0_25_225_trail_7/GS_26.112_GN_132_L_300_Trail_7_mirror_flip.png,7,300,26.111648393354677,132,3.73282787592093,0.2589718996898293,48.06212206398274,0.19546296478374572,0.082674,0.0005479270024373631,620.4666954979265,2.8647627362535673
1372,300L_GN_2.0_6.0_25_225_trail_7/GS_25.0_GN_144_L_300_Trail_7_orig.png,7,300,25.0,144,2.385544702689802,0.3174926936520627,50.88439841728611,0.6765205006778562,0.08582800000000002,0.0013230479961059635,608.6354272480432,2.7484171748122916
1373,300L_GN_2.0_6.0_25_225_trail_7/GS_25.0_GN_144_L_300_Trail_7_mirror.png,7,300,25.0,144,2.385544702689802,0.3174926936520627,50.88439841728611,0.6765205006778562,0.08582800000000002,0.0013230479961059635,608.6354272480432,2.7484171748122916
1374,300L_GN_2.0_6.0_25_225_trail_7/GS_25.0_GN_144_L_300_Trail_7_flip.png,7,300,25.0,144,2.385544702689802,0.3174926936520627,50.88439841728611,0.6765205006778562,0.08582800000000002,0.0013230479961059635,608.6354272480432,2.7484171748122916
1375,300L_GN_2.0_6.0_25_225_trail_7/GS_25.0_GN_144_L_300_Trail_7_mirror_flip.png,7,300,25.0,144,2.385544702689802,0.3174926936520627,50.88439841728611,0.6765205006778562,0.08582800000000002,0.0013230479961059635,608.6354272480432,2.7484171748122916
1376,300L_GN_2.0_6.0_25_225_trail_7/GS_24.333_GN_152_L_300_Trail_7_orig.png,7,300,24.333213169614382,152,2.8293959316227775,0.06542967922661987,50.35830916281212,0.6368311278308381,0.08779800000000001,0.001136334457807207,588.0349552083951,1.0106213011366727
1377,300L_GN_2.0_6.0_25_225_trail_7/GS_24.333_GN_152_L_300_Trail_7_mirror.png,7,300,24.333213169614382,152,2.8293959316227775,0.06542967922661987,50.35830916281212,0.6368311278308381,0.08779800000000001,0.001136334457807207,588.0349552083951,1.0106213011366727
1378,300L_GN_2.0_6.0_25_225_trail_7/GS_24.333_GN_152_L_300_Trail_7_flip.png,7,300,24.333213169614382,152,2.8293959316227775,0.06542967922661987,50.35830916281212,0.6368311278308381,0.08779800000000001,0.001136334457807207,588.0349552083951,1.0106213011366727
1379,300L_GN_2.0_6.0_25_225_trail_7/GS_24.333_GN_152_L_300_Trail_7_mirror_flip.png,7,300,24.333213169614382,152,2.8293959316227775,0.06542967922661987,50.35830916281212,0.6368311278308381,0.08779800000000001,0.001136334457807207,588.0349552083951,1.0106213011366727
1380,300L_GN_2.0_6.0_25_225_trail_7/GS_23.717_GN_160_L_300_Trail_7_orig.png,7,300,23.717082451262844,160,2.86136831363196,0.24564975238201722,47.72945131398921,0.3260238115864356,0.08366200000000001,0.0006426009648296487,577.7136220640346,1.8005960046284475
1381,300L_GN_2.0_6.0_25_225_trail_7/GS_23.717_GN_160_L_300_Trail_7_mirror.png,7,300,23.717082451262844,160,2.86136831363196,0.24564975238201722,47.72945131398921,0.3260238115864356,0.08366200000000001,0.0006426009648296487,577.7136220640346,1.8005960046284475
1382,300L_GN_2.0_6.0_25_225_trail_7/GS_23.717_GN_160_L_300_Trail_7_flip.png,7,300,23.717082451262844,160,2.86136831363196,0.24564975238201722,47.72945131398921,0.3260238115864356,0.08366200000000001,0.0006426009648296487,577.7136220640346,1.8005960046284475
1383,300L_GN_2.0_6.0_25_225_trail_7/GS_23.717_GN_160_L_300_Trail_7_mirror_flip.png,7,300,23.717082451262844,160,2.86136831363196,0.24564975238201722,47.72945131398921,0.3260238115864356,0.08366200000000001,0.0006426009648296487,577.7136220640346,1.8005960046284475
1384,300L_GN_2.0_6.0_25_225_trail_7/GS_23.146_GN_168_L_300_Trail_7_orig.png,7,300,23.145502494313785,168,2.8842397855969337,0.2927531268992993,44.66873105509872,0.7267404218346628,0.07741600000000001,0.0012260603574049712,595.5005962250935,2.510049375057044
1385,300L_GN_2.0_6.0_25_225_trail_7/GS_23.146_GN_168_L_300_Trail_7_mirror.png,7,300,23.145502494313785,168,2.8842397855969337,0.2927531268992993,44.66873105509872,0.7267404218346628,0.07741600000000001,0.0012260603574049712,595.5005962250935,2.510049375057044
1386,300L_GN_2.0_6.0_25_225_trail_7/GS_23.146_GN_168_L_300_Trail_7_flip.png,7,300,23.145502494313785,168,2.8842397855969337,0.2927531268992993,44.66873105509872,0.7267404218346628,0.07741600000000001,0.0012260603574049712,595.5005962250935,2.510049375057044
1387,300L_GN_2.0_6.0_25_225_trail_7/GS_23.146_GN_168_L_300_Trail_7_mirror_flip.png,7,300,23.145502494313785,168,2.8842397855969337,0.2927531268992993,44.66873105509872,0.7267404218346628,0.07741600000000001,0.0012260603574049712,595.5005962250935,2.510049375057044
1388,300L_GN_2.0_6.0_25_225_trail_7/GS_22.486_GN_178_L_300_Trail_7_orig.png,7,300,22.48595066987584,178,2.7276076845808532,0.4285785084529924,47.83528155719311,0.90103728217155,0.08142400000000001,0.001404074072120124,604.0619015024251,2.251853620938036
1389,300L_GN_2.0_6.0_25_225_trail_7/GS_22.486_GN_178_L_300_Trail_7_mirror.png,7,300,22.48595066987584,178,2.7276076845808532,0.4285785084529924,47.83528155719311,0.90103728217155,0.08142400000000001,0.001404074072120124,604.0619015024251,2.251853620938036
1390,300L_GN_2.0_6.0_25_225_trail_7/GS_22.486_GN_178_L_300_Trail_7_flip.png,7,300,22.48595066987584,178,2.7276076845808532,0.4285785084529924,47.83528155719311,0.90103728217155,0.08142400000000001,0.001404074072120124,604.0619015024251,2.251853620938036
1391,300L_GN_2.0_6.0_25_225_trail_7/GS_22.486_GN_178_L_300_Trail_7_mirror_flip.png,7,300,22.48595066987584,178,2.7276076845808532,0.4285785084529924,47.83528155719311,0.90103728217155,0.08142400000000001,0.001404074072120124,604.0619015024251,2.251853620938036
1392,300L_GN_2.0_6.0_25_225_trail_7/GS_21.213_GN_200_L_300_Trail_7_orig.png,7,300,21.213203435596427,200,2.9869203079213866,0.618997210034908,43.943681062445805,1.5046518169836172,0.07847200000000001,0.0028490377322878705,574.259317075442,2.339970732664316
1393,300L_GN_2.0_6.0_25_225_trail_7/GS_21.213_GN_200_L_300_Trail_7_mirror.png,7,300,21.213203435596427,200,2.9869203079213866,0.618997210034908,43.943681062445805,1.5046518169836172,0.07847200000000001,0.0028490377322878705,574.259317075442,2.339970732664316
1394,300L_GN_2.0_6.0_25_225_trail_7/GS_21.213_GN_200_L_300_Trail_7_flip.png,7,300,21.213203435596427,200,2.9869203079213866,0.618997210034908,43.943681062445805,1.5046518169836172,0.07847200000000001,0.0028490377322878705,574.259317075442,2.339970732664316
1395,300L_GN_2.0_6.0_25_225_trail_7/GS_21.213_GN_200_L_300_Trail_7_mirror_flip.png,7,300,21.213203435596427,200,2.9869203079213866,0.618997210034908,43.943681062445805,1.5046518169836172,0.07847200000000001,0.0028490377322878705,574.259317075442,2.339970732664316
1396,300L_GN_2.0_6.0_25_225_trail_7/GS_20.0_GN_225_L_300_Trail_7_orig.png,7,300,20.0,225,2.7876975861691995,0.4332886010081213,50.330930308123115,0.5487200577835629,0.08970800000000001,0.0013437469999966552,571.695932300767,2.2186362339587875
1397,300L_GN_2.0_6.0_25_225_trail_7/GS_20.0_GN_225_L_300_Trail_7_mirror.png,7,300,20.0,225,2.7876975861691995,0.4332886010081213,50.330930308123115,0.5487200577835629,0.08970800000000001,0.0013437469999966552,571.695932300767,2.2186362339587875
1398,300L_GN_2.0_6.0_25_225_trail_7/GS_20.0_GN_225_L_300_Trail_7_flip.png,7,300,20.0,225,2.7876975861691995,0.4332886010081213,50.330930308123115,0.5487200577835629,0.08970800000000001,0.0013437469999966552,571.695932300767,2.2186362339587875
1399,300L_GN_2.0_6.0_25_225_trail_7/GS_20.0_GN_225_L_300_Trail_7_mirror_flip.png,7,300,20.0,225,2.7876975861691995,0.4332886010081213,50.330930308123115,0.5487200577835629,0.08970800000000001,0.0013437469999966552,571.695932300767,2.2186362339587875
1400,300L_GN_2.0_6.0_25_225_trail_8/GS_60.0_GN_25_L_300_Trail_8_orig.png,8,300,60.0,25,2.7533404934600467,0.19452994814252852,52.738660770090085,0.8276034976460666,0.0821,0.0010826079622836729,699.2994693111456,2.757818406375123
1401,300L_GN_2.0_6.0_25_225_trail_8/GS_60.0_GN_25_L_300_Trail_8_mirror.png,8,300,60.0,25,2.7533404934600467,0.19452994814252852,52.738660770090085,0.8276034976460666,0.0821,0.0010826079622836729,699.2994693111456,2.757818406375123
1402,300L_GN_2.0_6.0_25_225_trail_8/GS_60.0_GN_25_L_300_Trail_8_flip.png,8,300,60.0,25,2.7533404934600467,0.19452994814252852,52.738660770090085,0.8276034976460666,0.0821,0.0010826079622836729,699.2994693111456,2.757818406375123
1403,300L_GN_2.0_6.0_25_225_trail_8/GS_60.0_GN_25_L_300_Trail_8_mirror_flip.png,8,300,60.0,25,2.7533404934600467,0.19452994814252852,52.738660770090085,0.8276034976460666,0.0821,0.0010826079622836729,699.2994693111456,2.757818406375123
1404,300L_GN_2.0_6.0_25_225_trail_8/GS_58.835_GN_26_L_300_Trail_8_orig.png,8,300,58.834840541455215,26,3.9683031634735904,0.494386421946792,54.39365939169304,1.2874766205665893,0.08526000000000002,0.0019840060483778776,693.514816671807,1.813733505836718
1405,300L_GN_2.0_6.0_25_225_trail_8/GS_58.835_GN_26_L_300_Trail_8_mirror.png,8,300,58.834840541455215,26,3.9683031634735904,0.494386421946792,54.39365939169304,1.2874766205665893,0.08526000000000002,0.0019840060483778776,693.514816671807,1.813733505836718
1406,300L_GN_2.0_6.0_25_225_trail_8/GS_58.835_GN_26_L_300_Trail_8_flip.png,8,300,58.834840541455215,26,3.9683031634735904,0.494386421946792,54.39365939169304,1.2874766205665893,0.08526000000000002,0.0019840060483778776,693.514816671807,1.813733505836718
1407,300L_GN_2.0_6.0_25_225_trail_8/GS_58.835_GN_26_L_300_Trail_8_mirror_flip.png,8,300,58.834840541455215,26,3.9683031634735904,0.494386421946792,54.39365939169304,1.2874766205665893,0.08526000000000002,0.0019840060483778776,693.514816671807,1.813733505836718
1408,300L_GN_2.0_6.0_25_225_trail_8/GS_57.735_GN_27_L_300_Trail_8_orig.png,8,300,57.735026918962575,27,3.497008518699544,0.414149039914028,55.06053110058914,0.5035759031944163,0.08594600000000001,0.0009367731849279213,694.8674664854999,1.3672850191299684
1409,300L_GN_2.0_6.0_25_225_trail_8/GS_57.735_GN_27_L_300_Trail_8_mirror.png,8,300,57.735026918962575,27,3.497008518699544,0.414149039914028,55.06053110058914,0.5035759031944163,0.08594600000000001,0.0009367731849279213,694.8674664854999,1.3672850191299684
1410,300L_GN_2.0_6.0_25_225_trail_8/GS_57.735_GN_27_L_300_Trail_8_flip.png,8,300,57.735026918962575,27,3.497008518699544,0.414149039914028,55.06053110058914,0.5035759031944163,0.08594600000000001,0.0009367731849279213,694.8674664854999,1.3672850191299684
1411,300L_GN_2.0_6.0_25_225_trail_8/GS_57.735_GN_27_L_300_Trail_8_mirror_flip.png,8,300,57.735026918962575,27,3.497008518699544,0.414149039914028,55.06053110058914,0.5035759031944163,0.08594600000000001,0.0009367731849279213,694.8674664854999,1.3672850191299684
1412,300L_GN_2.0_6.0_25_225_trail_8/GS_56.695_GN_28_L_300_Trail_8_orig.png,8,300,56.69467095138408,28,2.8458865113058116,0.2664753169309122,51.042992067018794,1.0675347541952072,0.08102600000000001,0.0015704852753209736,682.9088900789742,0.7070450544412336
1413,300L_GN_2.0_6.0_25_225_trail_8/GS_56.695_GN_28_L_300_Trail_8_mirror.png,8,300,56.69467095138408,28,2.8458865113058116,0.2664753169309122,51.042992067018794,1.0675347541952072,0.08102600000000001,0.0015704852753209736,682.9088900789742,0.7070450544412336
1414,300L_GN_2.0_6.0_25_225_trail_8/GS_56.695_GN_28_L_300_Trail_8_flip.png,8,300,56.69467095138408,28,2.8458865113058116,0.2664753169309122,51.042992067018794,1.0675347541952072,0.08102600000000001,0.0015704852753209736,682.9088900789742,0.7070450544412336
1415,300L_GN_2.0_6.0_25_225_trail_8/GS_56.695_GN_28_L_300_Trail_8_mirror_flip.png,8,300,56.69467095138408,28,2.8458865113058116,0.2664753169309122,51.042992067018794,1.0675347541952072,0.08102600000000001,0.0015704852753209736,682.9088900789742,0.7070450544412336
1416,300L_GN_2.0_6.0_25_225_trail_8/GS_55.709_GN_29_L_300_Trail_8_orig.png,8,300,55.70860145311556,29,2.7712940314849783,0.47703927888704817,52.12117834378459,0.4488880947882186,0.07798400000000001,0.0007243645491049395,725.4633348367051,1.0200854201579903
1417,300L_GN_2.0_6.0_25_225_trail_8/GS_55.709_GN_29_L_300_Trail_8_mirror.png,8,300,55.70860145311556,29,2.7712940314849783,0.47703927888704817,52.12117834378459,0.4488880947882186,0.07798400000000001,0.0007243645491049395,725.4633348367051,1.0200854201579903
1418,300L_GN_2.0_6.0_25_225_trail_8/GS_55.709_GN_29_L_300_Trail_8_flip.png,8,300,55.70860145311556,29,2.7712940314849783,0.47703927888704817,52.12117834378459,0.4488880947882186,0.07798400000000001,0.0007243645491049395,725.4633348367051,1.0200854201579903
1419,300L_GN_2.0_6.0_25_225_trail_8/GS_55.709_GN_29_L_300_Trail_8_mirror_flip.png,8,300,55.70860145311556,29,2.7712940314849783,0.47703927888704817,52.12117834378459,0.4488880947882186,0.07798400000000001,0.0007243645491049395,725.4633348367051,1.0200854201579903
1420,300L_GN_2.0_6.0_25_225_trail_8/GS_54.772_GN_30_L_300_Trail_8_orig.png,8,300,54.772255750516614,30,2.5078838770774707,0.35019039629348653,51.181116554161136,0.9286818795916421,0.077396,0.0013917557256932682,702.8005458112331,2.4183454795835853
1421,300L_GN_2.0_6.0_25_225_trail_8/GS_54.772_GN_30_L_300_Trail_8_mirror.png,8,300,54.772255750516614,30,2.5078838770774707,0.35019039629348653,51.181116554161136,0.9286818795916421,0.077396,0.0013917557256932682,702.8005458112331,2.4183454795835853
1422,300L_GN_2.0_6.0_25_225_trail_8/GS_54.772_GN_30_L_300_Trail_8_flip.png,8,300,54.772255750516614,30,2.5078838770774707,0.35019039629348653,51.181116554161136,0.9286818795916421,0.077396,0.0013917557256932682,702.8005458112331,2.4183454795835853
1423,300L_GN_2.0_6.0_25_225_trail_8/GS_54.772_GN_30_L_300_Trail_8_mirror_flip.png,8,300,54.772255750516614,30,2.5078838770774707,0.35019039629348653,51.181116554161136,0.9286818795916421,0.077396,0.0013917557256932682,702.8005458112331,2.4183454795835853
1424,300L_GN_2.0_6.0_25_225_trail_8/GS_53.882_GN_31_L_300_Trail_8_orig.png,8,300,53.881590608032475,31,2.5409350804735427,0.15579460688946986,53.10296174483776,0.7177126470998113,0.08338200000000001,0.001226106031303983,689.3551452685879,1.608838979527304
1425,300L_GN_2.0_6.0_25_225_trail_8/GS_53.882_GN_31_L_300_Trail_8_mirror.png,8,300,53.881590608032475,31,2.5409350804735427,0.15579460688946986,53.10296174483776,0.7177126470998113,0.08338200000000001,0.001226106031303983,689.3551452685879,1.608838979527304
1426,300L_GN_2.0_6.0_25_225_trail_8/GS_53.882_GN_31_L_300_Trail_8_flip.png,8,300,53.881590608032475,31,2.5409350804735427,0.15579460688946986,53.10296174483776,0.7177126470998113,0.08338200000000001,0.001226106031303983,689.3551452685879,1.608838979527304
1427,300L_GN_2.0_6.0_25_225_trail_8/GS_53.882_GN_31_L_300_Trail_8_mirror_flip.png,8,300,53.881590608032475,31,2.5409350804735427,0.15579460688946986,53.10296174483776,0.7177126470998113,0.08338200000000001,0.001226106031303983,689.3551452685879,1.608838979527304
1428,300L_GN_2.0_6.0_25_225_trail_8/GS_53.033_GN_32_L_300_Trail_8_orig.png,8,300,53.03300858899106,32,2.5186551684798433,0.14834545428553522,55.51096322735382,0.7901499344355911,0.09201600000000001,0.001344508832250648,653.0886930966849,2.534130783390261
1429,300L_GN_2.0_6.0_25_225_trail_8/GS_53.033_GN_32_L_300_Trail_8_mirror.png,8,300,53.03300858899106,32,2.5186551684798433,0.14834545428553522,55.51096322735382,0.7901499344355911,0.09201600000000001,0.001344508832250648,653.0886930966849,2.534130783390261
1430,300L_GN_2.0_6.0_25_225_trail_8/GS_53.033_GN_32_L_300_Trail_8_flip.png,8,300,53.03300858899106,32,2.5186551684798433,0.14834545428553522,55.51096322735382,0.7901499344355911,0.09201600000000001,0.001344508832250648,653.0886930966849,2.534130783390261
1431,300L_GN_2.0_6.0_25_225_trail_8/GS_53.033_GN_32_L_300_Trail_8_mirror_flip.png,8,300,53.03300858899106,32,2.5186551684798433,0.14834545428553522,55.51096322735382,0.7901499344355911,0.09201600000000001,0.001344508832250648,653.0886930966849,2.534130783390261
1432,300L_GN_2.0_6.0_25_225_trail_8/GS_52.223_GN_33_L_300_Trail_8_orig.png,8,300,52.223296786709355,33,3.5341777394747345,0.27584746996311976,48.365588123762734,0.565249550532145,0.076824,0.0008944182466832875,690.6876853330187,2.139091055121886
1433,300L_GN_2.0_6.0_25_225_trail_8/GS_52.223_GN_33_L_300_Trail_8_mirror.png,8,300,52.223296786709355,33,3.5341777394747345,0.27584746996311976,48.365588123762734,0.565249550532145,0.076824,0.0008944182466832875,690.6876853330187,2.139091055121886
1434,300L_GN_2.0_6.0_25_225_trail_8/GS_52.223_GN_33_L_300_Trail_8_flip.png,8,300,52.223296786709355,33,3.5341777394747345,0.27584746996311976,48.365588123762734,0.565249550532145,0.076824,0.0008944182466832875,690.6876853330187,2.139091055121886
1435,300L_GN_2.0_6.0_25_225_trail_8/GS_52.223_GN_33_L_300_Trail_8_mirror_flip.png,8,300,52.223296786709355,33,3.5341777394747345,0.27584746996311976,48.365588123762734,0.565249550532145,0.076824,0.0008944182466832875,690.6876853330187,2.139091055121886
1436,300L_GN_2.0_6.0_25_225_trail_8/GS_51.45_GN_34_L_300_Trail_8_orig.png,8,300,51.44957554275265,34,2.9429888282206758,1.0549778835656176,52.210184173201505,0.8609088165679629,0.08181000000000001,0.0020950894968950603,698.3093895777068,3.2242801043173253
1437,300L_GN_2.0_6.0_25_225_trail_8/GS_51.45_GN_34_L_300_Trail_8_mirror.png,8,300,51.44957554275265,34,2.9429888282206758,1.0549778835656176,52.210184173201505,0.8609088165679629,0.08181000000000001,0.0020950894968950603,698.3093895777068,3.2242801043173253
1438,300L_GN_2.0_6.0_25_225_trail_8/GS_51.45_GN_34_L_300_Trail_8_flip.png,8,300,51.44957554275265,34,2.9429888282206758,1.0549778835656176,52.210184173201505,0.8609088165679629,0.08181000000000001,0.0020950894968950603,698.3093895777068,3.2242801043173253
1439,300L_GN_2.0_6.0_25_225_trail_8/GS_51.45_GN_34_L_300_Trail_8_mirror_flip.png,8,300,51.44957554275265,34,2.9429888282206758,1.0549778835656176,52.210184173201505,0.8609088165679629,0.08181000000000001,0.0020950894968950603,698.3093895777068,3.2242801043173253
1440,300L_GN_2.0_6.0_25_225_trail_8/GS_50.709_GN_35_L_300_Trail_8_orig.png,8,300,50.709255283710995,35,3.590199148186575,0.5573762671769598,54.2376197237874,0.25209426591931133,0.087824,0.0009552507524205387,666.3209875400711,2.9386770190749942
1441,300L_GN_2.0_6.0_25_225_trail_8/GS_50.709_GN_35_L_300_Trail_8_mirror.png,8,300,50.709255283710995,35,3.590199148186575,0.5573762671769598,54.2376197237874,0.25209426591931133,0.087824,0.0009552507524205387,666.3209875400711,2.9386770190749942
1442,300L_GN_2.0_6.0_25_225_trail_8/GS_50.709_GN_35_L_300_Trail_8_flip.png,8,300,50.709255283710995,35,3.590199148186575,0.5573762671769598,54.2376197237874,0.25209426591931133,0.087824,0.0009552507524205387,666.3209875400711,2.9386770190749942
1443,300L_GN_2.0_6.0_25_225_trail_8/GS_50.709_GN_35_L_300_Trail_8_mirror_flip.png,8,300,50.709255283710995,35,3.590199148186575,0.5573762671769598,54.2376197237874,0.25209426591931133,0.087824,0.0009552507524205387,666.3209875400711,2.9386770190749942
1444,300L_GN_2.0_6.0_25_225_trail_8/GS_50.0_GN_36_L_300_Trail_8_orig.png,8,300,50.0,36,2.353275402137662,0.3043594826956142,55.88032571295232,0.29129650894078435,0.08962800000000001,0.0006628242602681375,671.302211756301,2.2202111914126412
1445,300L_GN_2.0_6.0_25_225_trail_8/GS_50.0_GN_36_L_300_Trail_8_mirror.png,8,300,50.0,36,2.353275402137662,0.3043594826956142,55.88032571295232,0.29129650894078435,0.08962800000000001,0.0006628242602681375,671.302211756301,2.2202111914126412
1446,300L_GN_2.0_6.0_25_225_trail_8/GS_50.0_GN_36_L_300_Trail_8_flip.png,8,300,50.0,36,2.353275402137662,0.3043594826956142,55.88032571295232,0.29129650894078435,0.08962800000000001,0.0006628242602681375,671.302211756301,2.2202111914126412
1447,300L_GN_2.0_6.0_25_225_trail_8/GS_50.0_GN_36_L_300_Trail_8_mirror_flip.png,8,300,50.0,36,2.353275402137662,0.3043594826956142,55.88032571295232,0.29129650894078435,0.08962800000000001,0.0006628242602681375,671.302211756301,2.2202111914126412
1448,300L_GN_2.0_6.0_25_225_trail_8/GS_49.32_GN_37_L_300_Trail_8_orig.png,8,300,49.31969619160719,37,3.338883065236073,0.2720226258533921,52.085011816344455,1.2052506370568103,0.081646,0.0018470365453883103,697.1578384734105,1.6047631673806357
1449,300L_GN_2.0_6.0_25_225_trail_8/GS_49.32_GN_37_L_300_Trail_8_mirror.png,8,300,49.31969619160719,37,3.338883065236073,0.2720226258533921,52.085011816344455,1.2052506370568103,0.081646,0.0018470365453883103,697.1578384734105,1.6047631673806357
1450,300L_GN_2.0_6.0_25_225_trail_8/GS_49.32_GN_37_L_300_Trail_8_flip.png,8,300,49.31969619160719,37,3.338883065236073,0.2720226258533921,52.085011816344455,1.2052506370568103,0.081646,0.0018470365453883103,697.1578384734105,1.6047631673806357
1451,300L_GN_2.0_6.0_25_225_trail_8/GS_49.32_GN_37_L_300_Trail_8_mirror_flip.png,8,300,49.31969619160719,37,3.338883065236073,0.2720226258533921,52.085011816344455,1.2052506370568103,0.081646,0.0018470365453883103,697.1578384734105,1.6047631673806357
1452,300L_GN_2.0_6.0_25_225_trail_8/GS_48.666_GN_38_L_300_Trail_8_orig.png,8,300,48.666426339228764,38,2.647748963976972,0.29517118755833816,46.487795618168526,0.4539909302332993,0.07302,0.0007620236216811113,685.4889932463237,1.179111543328484
1453,300L_GN_2.0_6.0_25_225_trail_8/GS_48.666_GN_38_L_300_Trail_8_mirror.png,8,300,48.666426339228764,38,2.647748963976972,0.29517118755833816,46.487795618168526,0.4539909302332993,0.07302,0.0007620236216811113,685.4889932463237,1.179111543328484
1454,300L_GN_2.0_6.0_25_225_trail_8/GS_48.666_GN_38_L_300_Trail_8_flip.png,8,300,48.666426339228764,38,2.647748963976972,0.29517118755833816,46.487795618168526,0.4539909302332993,0.07302,0.0007620236216811113,685.4889932463237,1.179111543328484
1455,300L_GN_2.0_6.0_25_225_trail_8/GS_48.666_GN_38_L_300_Trail_8_mirror_flip.png,8,300,48.666426339228764,38,2.647748963976972,0.29517118755833816,46.487795618168526,0.4539909302332993,0.07302,0.0007620236216811113,685.4889932463237,1.179111543328484
1456,300L_GN_2.0_6.0_25_225_trail_8/GS_48.038_GN_39_L_300_Trail_8_orig.png,8,300,48.03844614152614,39,2.7931148936531978,0.1497426782500085,51.07263538845038,0.720478529931017,0.08208200000000002,0.0008579370606285762,668.0622675870345,2.75016427908856
1457,300L_GN_2.0_6.0_25_225_trail_8/GS_48.038_GN_39_L_300_Trail_8_mirror.png,8,300,48.03844614152614,39,2.7931148936531978,0.1497426782500085,51.07263538845038,0.720478529931017,0.08208200000000002,0.0008579370606285762,668.0622675870345,2.75016427908856
1458,300L_GN_2.0_6.0_25_225_trail_8/GS_48.038_GN_39_L_300_Trail_8_flip.png,8,300,48.03844614152614,39,2.7931148936531978,0.1497426782500085,51.07263538845038,0.720478529931017,0.08208200000000002,0.0008579370606285762,668.0622675870345,2.75016427908856
1459,300L_GN_2.0_6.0_25_225_trail_8/GS_48.038_GN_39_L_300_Trail_8_mirror_flip.png,8,300,48.03844614152614,39,2.7931148936531978,0.1497426782500085,51.07263538845038,0.720478529931017,0.08208200000000002,0.0008579370606285762,668.0622675870345,2.75016427908856
1460,300L_GN_2.0_6.0_25_225_trail_8/GS_47.434_GN_40_L_300_Trail_8_orig.png,8,300,47.43416490252569,40,3.6339132878318536,1.0864804103666805,54.865075262224366,0.5234996616326548,0.08730800000000001,0.0010039800794836536,668.0236314424476,2.26899839169829
1461,300L_GN_2.0_6.0_25_225_trail_8/GS_47.434_GN_40_L_300_Trail_8_mirror.png,8,300,47.43416490252569,40,3.6339132878318536,1.0864804103666805,54.865075262224366,0.5234996616326548,0.08730800000000001,0.0010039800794836536,668.0236314424476,2.26899839169829
1462,300L_GN_2.0_6.0_25_225_trail_8/GS_47.434_GN_40_L_300_Trail_8_flip.png,8,300,47.43416490252569,40,3.6339132878318536,1.0864804103666805,54.865075262224366,0.5234996616326548,0.08730800000000001,0.0010039800794836536,668.0236314424476,2.26899839169829
1463,300L_GN_2.0_6.0_25_225_trail_8/GS_47.434_GN_40_L_300_Trail_8_mirror_flip.png,8,300,47.43416490252569,40,3.6339132878318536,1.0864804103666805,54.865075262224366,0.5234996616326548,0.08730800000000001,0.0010039800794836536,668.0236314424476,2.26899839169829
1464,300L_GN_2.0_6.0_25_225_trail_8/GS_46.852_GN_41_L_300_Trail_8_orig.png,8,300,46.85212856658182,41,3.4982774398648098,0.030885921701199283,48.57347055003986,1.2656024689892387,0.07904600000000002,0.0023122595010076174,659.811013579469,3.2398682120677864
1465,300L_GN_2.0_6.0_25_225_trail_8/GS_46.852_GN_41_L_300_Trail_8_mirror.png,8,300,46.85212856658182,41,3.4982774398648098,0.030885921701199283,48.57347055003986,1.2656024689892387,0.07904600000000002,0.0023122595010076174,659.811013579469,3.2398682120677864
1466,300L_GN_2.0_6.0_25_225_trail_8/GS_46.852_GN_41_L_300_Trail_8_flip.png,8,300,46.85212856658182,41,3.4982774398648098,0.030885921701199283,48.57347055003986,1.2656024689892387,0.07904600000000002,0.0023122595010076174,659.811013579469,3.2398682120677864
1467,300L_GN_2.0_6.0_25_225_trail_8/GS_46.852_GN_41_L_300_Trail_8_mirror_flip.png,8,300,46.85212856658182,41,3.4982774398648098,0.030885921701199283,48.57347055003986,1.2656024689892387,0.07904600000000002,0.0023122595010076174,659.811013579469,3.2398682120677864
1468,300L_GN_2.0_6.0_25_225_trail_8/GS_45.75_GN_43_L_300_Trail_8_orig.png,8,300,45.7495710997814,43,3.5744534745451206,0.2707962993719345,47.812273866929175,1.0069454363982155,0.07504400000000001,0.001578994616836925,677.6484407280138,1.3963757620447674
1469,300L_GN_2.0_6.0_25_225_trail_8/GS_45.75_GN_43_L_300_Trail_8_mirror.png,8,300,45.7495710997814,43,3.5744534745451206,0.2707962993719345,47.812273866929175,1.0069454363982155,0.07504400000000001,0.001578994616836925,677.6484407280138,1.3963757620447674
1470,300L_GN_2.0_6.0_25_225_trail_8/GS_45.75_GN_43_L_300_Trail_8_flip.png,8,300,45.7495710997814,43,3.5744534745451206,0.2707962993719345,47.812273866929175,1.0069454363982155,0.07504400000000001,0.001578994616836925,677.6484407280138,1.3963757620447674
1471,300L_GN_2.0_6.0_25_225_trail_8/GS_45.75_GN_43_L_300_Trail_8_mirror_flip.png,8,300,45.7495710997814,43,3.5744534745451206,0.2707962993719345,47.812273866929175,1.0069454363982155,0.07504400000000001,0.001578994616836925,677.6484407280138,1.3963757620447674
1472,300L_GN_2.0_6.0_25_225_trail_8/GS_45.227_GN_44_L_300_Trail_8_orig.png,8,300,45.22670168666454,44,2.4853428843507857,0.8712062905348349,57.956643456524,0.9154290769680088,0.092828,0.0016200296293586737,675.6008178051477,1.8337460874701765
1473,300L_GN_2.0_6.0_25_225_trail_8/GS_45.227_GN_44_L_300_Trail_8_mirror.png,8,300,45.22670168666454,44,2.4853428843507857,0.8712062905348349,57.956643456524,0.9154290769680088,0.092828,0.0016200296293586737,675.6008178051477,1.8337460874701765
1474,300L_GN_2.0_6.0_25_225_trail_8/GS_45.227_GN_44_L_300_Trail_8_flip.png,8,300,45.22670168666454,44,2.4853428843507857,0.8712062905348349,57.956643456524,0.9154290769680088,0.092828,0.0016200296293586737,675.6008178051477,1.8337460874701765
1475,300L_GN_2.0_6.0_25_225_trail_8/GS_45.227_GN_44_L_300_Trail_8_mirror_flip.png,8,300,45.22670168666454,44,2.4853428843507857,0.8712062905348349,57.956643456524,0.9154290769680088,0.092828,0.0016200296293586737,675.6008178051477,1.8337460874701765
1476,300L_GN_2.0_6.0_25_225_trail_8/GS_43.759_GN_47_L_300_Trail_8_orig.png,8,300,43.75949744936837,47,3.2154759036816065,0.4436399372825392,48.497950546954655,0.21115795921689998,0.076244,0.0006232367126541834,685.052122716131,3.1808832796270066
1477,300L_GN_2.0_6.0_25_225_trail_8/GS_43.759_GN_47_L_300_Trail_8_mirror.png,8,300,43.75949744936837,47,3.2154759036816065,0.4436399372825392,48.497950546954655,0.21115795921689998,0.076244,0.0006232367126541834,685.052122716131,3.1808832796270066
1478,300L_GN_2.0_6.0_25_225_trail_8/GS_43.759_GN_47_L_300_Trail_8_flip.png,8,300,43.75949744936837,47,3.2154759036816065,0.4436399372825392,48.497950546954655,0.21115795921689998,0.076244,0.0006232367126541834,685.052122716131,3.1808832796270066
1479,300L_GN_2.0_6.0_25_225_trail_8/GS_43.759_GN_47_L_300_Trail_8_mirror_flip.png,8,300,43.75949744936837,47,3.2154759036816065,0.4436399372825392,48.497950546954655,0.21115795921689998,0.076244,0.0006232367126541834,685.052122716131,3.1808832796270066
1480,300L_GN_2.0_6.0_25_225_trail_8/GS_43.301_GN_48_L_300_Trail_8_orig.png,8,300,43.30127018922194,48,3.2011750753886155,0.8712123478613167,54.309013968295766,0.3196054014580677,0.091022,0.0005334941424233254,636.1119487437634,2.5249060311607643
1481,300L_GN_2.0_6.0_25_225_trail_8/GS_43.301_GN_48_L_300_Trail_8_mirror.png,8,300,43.30127018922194,48,3.2011750753886155,0.8712123478613167,54.309013968295766,0.3196054014580677,0.091022,0.0005334941424233254,636.1119487437634,2.5249060311607643
1482,300L_GN_2.0_6.0_25_225_trail_8/GS_43.301_GN_48_L_300_Trail_8_flip.png,8,300,43.30127018922194,48,3.2011750753886155,0.8712123478613167,54.309013968295766,0.3196054014580677,0.091022,0.0005334941424233254,636.1119487437634,2.5249060311607643
1483,300L_GN_2.0_6.0_25_225_trail_8/GS_43.301_GN_48_L_300_Trail_8_mirror_flip.png,8,300,43.30127018922194,48,3.2011750753886155,0.8712123478613167,54.309013968295766,0.3196054014580677,0.091022,0.0005334941424233254,636.1119487437634,2.5249060311607643
1484,300L_GN_2.0_6.0_25_225_trail_8/GS_42.426_GN_50_L_300_Trail_8_orig.png,8,300,42.42640687119285,50,2.7388766634703408,0.35507770567336916,53.26761126014162,1.4733596890323197,0.084344,0.002081716599347763,673.9678584007827,1.5344042265890467
1485,300L_GN_2.0_6.0_25_225_trail_8/GS_42.426_GN_50_L_300_Trail_8_mirror.png,8,300,42.42640687119285,50,2.7388766634703408,0.35507770567336916,53.26761126014162,1.4733596890323197,0.084344,0.002081716599347763,673.9678584007827,1.5344042265890467
1486,300L_GN_2.0_6.0_25_225_trail_8/GS_42.426_GN_50_L_300_Trail_8_flip.png,8,300,42.42640687119285,50,2.7388766634703408,0.35507770567336916,53.26761126014162,1.4733596890323197,0.084344,0.002081716599347763,673.9678584007827,1.5344042265890467
1487,300L_GN_2.0_6.0_25_225_trail_8/GS_42.426_GN_50_L_300_Trail_8_mirror_flip.png,8,300,42.42640687119285,50,2.7388766634703408,0.35507770567336916,53.26761126014162,1.4733596890323197,0.084344,0.002081716599347763,673.9678584007827,1.5344042265890467
1488,300L_GN_2.0_6.0_25_225_trail_8/GS_41.603_GN_52_L_300_Trail_8_orig.png,8,300,41.60251471689219,52,2.5836123764274412,0.13566986532393677,51.24569108785285,0.970832498243313,0.08494,0.0015718142383882405,645.2167315050954,3.0817593397859553
1489,300L_GN_2.0_6.0_25_225_trail_8/GS_41.603_GN_52_L_300_Trail_8_mirror.png,8,300,41.60251471689219,52,2.5836123764274412,0.13566986532393677,51.24569108785285,0.970832498243313,0.08494,0.0015718142383882405,645.2167315050954,3.0817593397859553
1490,300L_GN_2.0_6.0_25_225_trail_8/GS_41.603_GN_52_L_300_Trail_8_flip.png,8,300,41.60251471689219,52,2.5836123764274412,0.13566986532393677,51.24569108785285,0.970832498243313,0.08494,0.0015718142383882405,645.2167315050954,3.0817593397859553
1491,300L_GN_2.0_6.0_25_225_trail_8/GS_41.603_GN_52_L_300_Trail_8_mirror_flip.png,8,300,41.60251471689219,52,2.5836123764274412,0.13566986532393677,51.24569108785285,0.970832498243313,0.08494,0.0015718142383882405,645.2167315050954,3.0817593397859553
1492,300L_GN_2.0_6.0_25_225_trail_8/GS_41.208_GN_53_L_300_Trail_8_orig.png,8,300,41.20816918460671,53,2.8789055572021987,0.24351324373275984,52.641712444032386,0.9773289633610815,0.08280400000000002,0.0016967922677805889,680.3402968921146,2.5930373197486136
1493,300L_GN_2.0_6.0_25_225_trail_8/GS_41.208_GN_53_L_300_Trail_8_mirror.png,8,300,41.20816918460671,53,2.8789055572021987,0.24351324373275984,52.641712444032386,0.9773289633610815,0.08280400000000002,0.0016967922677805889,680.3402968921146,2.5930373197486136
1494,300L_GN_2.0_6.0_25_225_trail_8/GS_41.208_GN_53_L_300_Trail_8_flip.png,8,300,41.20816918460671,53,2.8789055572021987,0.24351324373275984,52.641712444032386,0.9773289633610815,0.08280400000000002,0.0016967922677805889,680.3402968921146,2.5930373197486136
1495,300L_GN_2.0_6.0_25_225_trail_8/GS_41.208_GN_53_L_300_Trail_8_mirror_flip.png,8,300,41.20816918460671,53,2.8789055572021987,0.24351324373275984,52.641712444032386,0.9773289633610815,0.08280400000000002,0.0016967922677805889,680.3402968921146,2.5930373197486136
1496,300L_GN_2.0_6.0_25_225_trail_8/GS_40.089_GN_56_L_300_Trail_8_orig.png,8,300,40.08918628686366,56,3.253076312294745,1.0927244386655188,50.39666512775523,0.5888977882260431,0.083396,0.0010670820024721607,637.3532165694298,2.6021363101896986
1497,300L_GN_2.0_6.0_25_225_trail_8/GS_40.089_GN_56_L_300_Trail_8_mirror.png,8,300,40.08918628686366,56,3.253076312294745,1.0927244386655188,50.39666512775523,0.5888977882260431,0.083396,0.0010670820024721607,637.3532165694298,2.6021363101896986
1498,300L_GN_2.0_6.0_25_225_trail_8/GS_40.089_GN_56_L_300_Trail_8_flip.png,8,300,40.08918628686366,56,3.253076312294745,1.0927244386655188,50.39666512775523,0.5888977882260431,0.083396,0.0010670820024721607,637.3532165694298,2.6021363101896986
1499,300L_GN_2.0_6.0_25_225_trail_8/GS_40.089_GN_56_L_300_Trail_8_mirror_flip.png,8,300,40.08918628686366,56,3.253076312294745,1.0927244386655188,50.39666512775523,0.5888977882260431,0.083396,0.0010670820024721607,637.3532165694298,2.6021363101896986
1500,300L_GN_2.0_6.0_25_225_trail_8/GS_39.392_GN_58_L_300_Trail_8_orig.png,8,300,39.391929857916764,58,3.1105377638252745,0.1805231484513464,44.92138991385224,0.1902306090714344,0.07451800000000001,0.0002212148277127904,648.8369175400351,2.4255130113211045
1501,300L_GN_2.0_6.0_25_225_trail_8/GS_39.392_GN_58_L_300_Trail_8_mirror.png,8,300,39.391929857916764,58,3.1105377638252745,0.1805231484513464,44.92138991385224,0.1902306090714344,0.07451800000000001,0.0002212148277127904,648.8369175400351,2.4255130113211045
1502,300L_GN_2.0_6.0_25_225_trail_8/GS_39.392_GN_58_L_300_Trail_8_flip.png,8,300,39.391929857916764,58,3.1105377638252745,0.1805231484513464,44.92138991385224,0.1902306090714344,0.07451800000000001,0.0002212148277127904,648.8369175400351,2.4255130113211045
1503,300L_GN_2.0_6.0_25_225_trail_8/GS_39.392_GN_58_L_300_Trail_8_mirror_flip.png,8,300,39.391929857916764,58,3.1105377638252745,0.1805231484513464,44.92138991385224,0.1902306090714344,0.07451800000000001,0.0002212148277127904,648.8369175400351,2.4255130113211045
1504,300L_GN_2.0_6.0_25_225_trail_8/GS_38.73_GN_60_L_300_Trail_8_orig.png,8,300,38.72983346207417,60,3.3838795319323167,0.2765242035092606,51.3732694220151,0.7134779850072458,0.083512,0.0011386026523770275,654.294757905477,2.7958397113323
1505,300L_GN_2.0_6.0_25_225_trail_8/GS_38.73_GN_60_L_300_Trail_8_mirror.png,8,300,38.72983346207417,60,3.3838795319323167,0.2765242035092606,51.3732694220151,0.7134779850072458,0.083512,0.0011386026523770275,654.294757905477,2.7958397113323
1506,300L_GN_2.0_6.0_25_225_trail_8/GS_38.73_GN_60_L_300_Trail_8_flip.png,8,300,38.72983346207417,60,3.3838795319323167,0.2765242035092606,51.3732694220151,0.7134779850072458,0.083512,0.0011386026523770275,654.294757905477,2.7958397113323
1507,300L_GN_2.0_6.0_25_225_trail_8/GS_38.73_GN_60_L_300_Trail_8_mirror_flip.png,8,300,38.72983346207417,60,3.3838795319323167,0.2765242035092606,51.3732694220151,0.7134779850072458,0.083512,0.0011386026523770275,654.294757905477,2.7958397113323
1508,300L_GN_2.0_6.0_25_225_trail_8/GS_38.1_GN_62_L_300_Trail_8_orig.png,8,300,38.10003810005715,62,2.594559234791805,0.24855085334036606,48.810571109391894,0.8313798305564747,0.07947600000000002,0.0016380671536905915,649.5207382030405,1.9207194183863143
1509,300L_GN_2.0_6.0_25_225_trail_8/GS_38.1_GN_62_L_300_Trail_8_mirror.png,8,300,38.10003810005715,62,2.594559234791805,0.24855085334036606,48.810571109391894,0.8313798305564747,0.07947600000000002,0.0016380671536905915,649.5207382030405,1.9207194183863143
1510,300L_GN_2.0_6.0_25_225_trail_8/GS_38.1_GN_62_L_300_Trail_8_flip.png,8,300,38.10003810005715,62,2.594559234791805,0.24855085334036606,48.810571109391894,0.8313798305564747,0.07947600000000002,0.0016380671536905915,649.5207382030405,1.9207194183863143
1511,300L_GN_2.0_6.0_25_225_trail_8/GS_38.1_GN_62_L_300_Trail_8_mirror_flip.png,8,300,38.10003810005715,62,2.594559234791805,0.24855085334036606,48.810571109391894,0.8313798305564747,0.07947600000000002,0.0016380671536905915,649.5207382030405,1.9207194183863143
1512,300L_GN_2.0_6.0_25_225_trail_8/GS_37.5_GN_64_L_300_Trail_8_orig.png,8,300,37.5,64,2.178056860424573,0.15755341855681412,53.27269776829655,0.8005578882022644,0.085212,0.001427436863752649,660.0683116481359,2.857472146788141
1513,300L_GN_2.0_6.0_25_225_trail_8/GS_37.5_GN_64_L_300_Trail_8_mirror.png,8,300,37.5,64,2.178056860424573,0.15755341855681412,53.27269776829655,0.8005578882022644,0.085212,0.001427436863752649,660.0683116481359,2.857472146788141
1514,300L_GN_2.0_6.0_25_225_trail_8/GS_37.5_GN_64_L_300_Trail_8_flip.png,8,300,37.5,64,2.178056860424573,0.15755341855681412,53.27269776829655,0.8005578882022644,0.085212,0.001427436863752649,660.0683116481359,2.857472146788141
1515,300L_GN_2.0_6.0_25_225_trail_8/GS_37.5_GN_64_L_300_Trail_8_mirror_flip.png,8,300,37.5,64,2.178056860424573,0.15755341855681412,53.27269776829655,0.8005578882022644,0.085212,0.001427436863752649,660.0683116481359,2.857472146788141
1516,300L_GN_2.0_6.0_25_225_trail_8/GS_36.927_GN_66_L_300_Trail_8_orig.png,8,300,36.927447293799815,66,3.78415140169063,0.8293695531562731,54.734796043761925,0.48542782010834234,0.09047400000000001,0.0008307731338939651,635.6621713076192,2.9395779309140107
1517,300L_GN_2.0_6.0_25_225_trail_8/GS_36.927_GN_66_L_300_Trail_8_mirror.png,8,300,36.927447293799815,66,3.78415140169063,0.8293695531562731,54.734796043761925,0.48542782010834234,0.09047400000000001,0.0008307731338939651,635.6621713076192,2.9395779309140107
1518,300L_GN_2.0_6.0_25_225_trail_8/GS_36.927_GN_66_L_300_Trail_8_flip.png,8,300,36.927447293799815,66,3.78415140169063,0.8293695531562731,54.734796043761925,0.48542782010834234,0.09047400000000001,0.0008307731338939651,635.6621713076192,2.9395779309140107
1519,300L_GN_2.0_6.0_25_225_trail_8/GS_36.927_GN_66_L_300_Trail_8_mirror_flip.png,8,300,36.927447293799815,66,3.78415140169063,0.8293695531562731,54.734796043761925,0.48542782010834234,0.09047400000000001,0.0008307731338939651,635.6621713076192,2.9395779309140107
1520,300L_GN_2.0_6.0_25_225_trail_8/GS_36.116_GN_69_L_300_Trail_8_orig.png,8,300,36.11575592573076,69,2.380510535147908,0.17123568396403557,48.85909299866125,1.1302234477386597,0.08322199999999999,0.001820388969423842,615.5065313769229,3.425604158544083
1521,300L_GN_2.0_6.0_25_225_trail_8/GS_36.116_GN_69_L_300_Trail_8_mirror.png,8,300,36.11575592573076,69,2.380510535147908,0.17123568396403557,48.85909299866125,1.1302234477386597,0.08322199999999999,0.001820388969423842,615.5065313769229,3.425604158544083
1522,300L_GN_2.0_6.0_25_225_trail_8/GS_36.116_GN_69_L_300_Trail_8_flip.png,8,300,36.11575592573076,69,2.380510535147908,0.17123568396403557,48.85909299866125,1.1302234477386597,0.08322199999999999,0.001820388969423842,615.5065313769229,3.425604158544083
1523,300L_GN_2.0_6.0_25_225_trail_8/GS_36.116_GN_69_L_300_Trail_8_mirror_flip.png,8,300,36.11575592573076,69,2.380510535147908,0.17123568396403557,48.85909299866125,1.1302234477386597,0.08322199999999999,0.001820388969423842,615.5065313769229,3.425604158544083
1524,300L_GN_2.0_6.0_25_225_trail_8/GS_34.874_GN_74_L_300_Trail_8_orig.png,8,300,34.87429162314579,74,3.518773768254256,1.7373210953446445,48.127439181558515,1.168379086082474,0.078014,0.0018459534121965276,647.5611993781893,1.780050998227113
1525,300L_GN_2.0_6.0_25_225_trail_8/GS_34.874_GN_74_L_300_Trail_8_mirror.png,8,300,34.87429162314579,74,3.518773768254256,1.7373210953446445,48.127439181558515,1.168379086082474,0.078014,0.0018459534121965276,647.5611993781893,1.780050998227113
1526,300L_GN_2.0_6.0_25_225_trail_8/GS_34.874_GN_74_L_300_Trail_8_flip.png,8,300,34.87429162314579,74,3.518773768254256,1.7373210953446445,48.127439181558515,1.168379086082474,0.078014,0.0018459534121965276,647.5611993781893,1.780050998227113
1527,300L_GN_2.0_6.0_25_225_trail_8/GS_34.874_GN_74_L_300_Trail_8_mirror_flip.png,8,300,34.87429162314579,74,3.518773768254256,1.7373210953446445,48.127439181558515,1.168379086082474,0.078014,0.0018459534121965276,647.5611993781893,1.780050998227113
1528,300L_GN_2.0_6.0_25_225_trail_8/GS_33.968_GN_78_L_300_Trail_8_orig.png,8,300,33.96831102433787,78,2.9612479314189066,0.21432204295794338,47.96235283347602,0.3239130286372071,0.08108000000000001,0.000831312215716817,618.5550118846867,2.4721934411160467
1529,300L_GN_2.0_6.0_25_225_trail_8/GS_33.968_GN_78_L_300_Trail_8_mirror.png,8,300,33.96831102433787,78,2.9612479314189066,0.21432204295794338,47.96235283347602,0.3239130286372071,0.08108000000000001,0.000831312215716817,618.5550118846867,2.4721934411160467
1530,300L_GN_2.0_6.0_25_225_trail_8/GS_33.968_GN_78_L_300_Trail_8_flip.png,8,300,33.96831102433787,78,2.9612479314189066,0.21432204295794338,47.96235283347602,0.3239130286372071,0.08108000000000001,0.000831312215716817,618.5550118846867,2.4721934411160467
1531,300L_GN_2.0_6.0_25_225_trail_8/GS_33.968_GN_78_L_300_Trail_8_mirror_flip.png,8,300,33.96831102433787,78,2.9612479314189066,0.21432204295794338,47.96235283347602,0.3239130286372071,0.08108000000000001,0.000831312215716817,618.5550118846867,2.4721934411160467
1532,300L_GN_2.0_6.0_25_225_trail_8/GS_33.129_GN_82_L_300_Trail_8_orig.png,8,300,33.12945782245396,82,2.9042268740455928,0.4291219524221906,46.79583230118627,1.3855753205479107,0.079898,0.0023039305545089696,613.8894514457809,2.0145159580733103
1533,300L_GN_2.0_6.0_25_225_trail_8/GS_33.129_GN_82_L_300_Trail_8_mirror.png,8,300,33.12945782245396,82,2.9042268740455928,0.4291219524221906,46.79583230118627,1.3855753205479107,0.079898,0.0023039305545089696,613.8894514457809,2.0145159580733103
1534,300L_GN_2.0_6.0_25_225_trail_8/GS_33.129_GN_82_L_300_Trail_8_flip.png,8,300,33.12945782245396,82,2.9042268740455928,0.4291219524221906,46.79583230118627,1.3855753205479107,0.079898,0.0023039305545089696,613.8894514457809,2.0145159580733103
1535,300L_GN_2.0_6.0_25_225_trail_8/GS_33.129_GN_82_L_300_Trail_8_mirror_flip.png,8,300,33.12945782245396,82,2.9042268740455928,0.4291219524221906,46.79583230118627,1.3855753205479107,0.079898,0.0023039305545089696,613.8894514457809,2.0145159580733103
1536,300L_GN_2.0_6.0_25_225_trail_8/GS_32.163_GN_87_L_300_Trail_8_orig.png,8,300,32.163376045133845,87,3.8994942668152524,0.4225290457664003,49.46971599487024,0.9362654415910052,0.08298799999999999,0.0018971072716111746,628.844913039088,2.5792827035023507
1537,300L_GN_2.0_6.0_25_225_trail_8/GS_32.163_GN_87_L_300_Trail_8_mirror.png,8,300,32.163376045133845,87,3.8994942668152524,0.4225290457664003,49.46971599487024,0.9362654415910052,0.08298799999999999,0.0018971072716111746,628.844913039088,2.5792827035023507
1538,300L_GN_2.0_6.0_25_225_trail_8/GS_32.163_GN_87_L_300_Trail_8_flip.png,8,300,32.163376045133845,87,3.8994942668152524,0.4225290457664003,49.46971599487024,0.9362654415910052,0.08298799999999999,0.0018971072716111746,628.844913039088,2.5792827035023507
1539,300L_GN_2.0_6.0_25_225_trail_8/GS_32.163_GN_87_L_300_Trail_8_mirror_flip.png,8,300,32.163376045133845,87,3.8994942668152524,0.4225290457664003,49.46971599487024,0.9362654415910052,0.08298799999999999,0.0018971072716111746,628.844913039088,2.5792827035023507
1540,300L_GN_2.0_6.0_25_225_trail_8/GS_31.449_GN_91_L_300_Trail_8_orig.png,8,300,31.44854510165755,91,2.4792684977343256,0.158957081856497,45.81622601060225,1.3447273819521237,0.078044,0.002370701162103736,609.6352472215397,3.026396771116524
1541,300L_GN_2.0_6.0_25_225_trail_8/GS_31.449_GN_91_L_300_Trail_8_mirror.png,8,300,31.44854510165755,91,2.4792684977343256,0.158957081856497,45.81622601060225,1.3447273819521237,0.078044,0.002370701162103736,609.6352472215397,3.026396771116524
1542,300L_GN_2.0_6.0_25_225_trail_8/GS_31.449_GN_91_L_300_Trail_8_flip.png,8,300,31.44854510165755,91,2.4792684977343256,0.158957081856497,45.81622601060225,1.3447273819521237,0.078044,0.002370701162103736,609.6352472215397,3.026396771116524
1543,300L_GN_2.0_6.0_25_225_trail_8/GS_31.449_GN_91_L_300_Trail_8_mirror_flip.png,8,300,31.44854510165755,91,2.4792684977343256,0.158957081856497,45.81622601060225,1.3447273819521237,0.078044,0.002370701162103736,609.6352472215397,3.026396771116524
1544,300L_GN_2.0_6.0_25_225_trail_8/GS_30.779_GN_95_L_300_Trail_8_orig.png,8,300,30.779350562554626,95,2.8949111193511454,0.16095371904233988,51.381811031431006,0.487622465173294,0.08540800000000001,0.0007688536921937755,633.8799531656881,2.269783536750784
1545,300L_GN_2.0_6.0_25_225_trail_8/GS_30.779_GN_95_L_300_Trail_8_mirror.png,8,300,30.779350562554626,95,2.8949111193511454,0.16095371904233988,51.381811031431006,0.487622465173294,0.08540800000000001,0.0007688536921937755,633.8799531656881,2.269783536750784
1546,300L_GN_2.0_6.0_25_225_trail_8/GS_30.779_GN_95_L_300_Trail_8_flip.png,8,300,30.779350562554626,95,2.8949111193511454,0.16095371904233988,51.381811031431006,0.487622465173294,0.08540800000000001,0.0007688536921937755,633.8799531656881,2.269783536750784
1547,300L_GN_2.0_6.0_25_225_trail_8/GS_30.779_GN_95_L_300_Trail_8_mirror_flip.png,8,300,30.779350562554626,95,2.8949111193511454,0.16095371904233988,51.381811031431006,0.487622465173294,0.08540800000000001,0.0007688536921937755,633.8799531656881,2.269783536750784
1548,300L_GN_2.0_6.0_25_225_trail_8/GS_30.0_GN_100_L_300_Trail_8_orig.png,8,300,30.0,100,3.1886236347697325,0.19341504265412848,44.177167305552466,1.2962380528266977,0.075412,0.002026458980586579,607.7887706494333,0.923223539381928
1549,300L_GN_2.0_6.0_25_225_trail_8/GS_30.0_GN_100_L_300_Trail_8_mirror.png,8,300,30.0,100,3.1886236347697325,0.19341504265412848,44.177167305552466,1.2962380528266977,0.075412,0.002026458980586579,607.7887706494333,0.923223539381928
1550,300L_GN_2.0_6.0_25_225_trail_8/GS_30.0_GN_100_L_300_Trail_8_flip.png,8,300,30.0,100,3.1886236347697325,0.19341504265412848,44.177167305552466,1.2962380528266977,0.075412,0.002026458980586579,607.7887706494333,0.923223539381928
1551,300L_GN_2.0_6.0_25_225_trail_8/GS_30.0_GN_100_L_300_Trail_8_mirror_flip.png,8,300,30.0,100,3.1886236347697325,0.19341504265412848,44.177167305552466,1.2962380528266977,0.075412,0.002026458980586579,607.7887706494333,0.923223539381928
1552,300L_GN_2.0_6.0_25_225_trail_8/GS_29.139_GN_106_L_300_Trail_8_orig.png,8,300,29.138575870717926,106,2.1859224277356812,0.21463105739480176,50.46226030015861,0.47345150959321636,0.086998,0.0009257083774061878,595.7594310373117,1.4546000468474447
1553,300L_GN_2.0_6.0_25_225_trail_8/GS_29.139_GN_106_L_300_Trail_8_mirror.png,8,300,29.138575870717926,106,2.1859224277356812,0.21463105739480176,50.46226030015861,0.47345150959321636,0.086998,0.0009257083774061878,595.7594310373117,1.4546000468474447
1554,300L_GN_2.0_6.0_25_225_trail_8/GS_29.139_GN_106_L_300_Trail_8_flip.png,8,300,29.138575870717926,106,2.1859224277356812,0.21463105739480176,50.46226030015861,0.47345150959321636,0.086998,0.0009257083774061878,595.7594310373117,1.4546000468474447
1555,300L_GN_2.0_6.0_25_225_trail_8/GS_29.139_GN_106_L_300_Trail_8_mirror_flip.png,8,300,29.138575870717926,106,2.1859224277356812,0.21463105739480176,50.46226030015861,0.47345150959321636,0.086998,0.0009257083774061878,595.7594310373117,1.4546000468474447
1556,300L_GN_2.0_6.0_25_225_trail_8/GS_28.347_GN_112_L_300_Trail_8_orig.png,8,300,28.34733547569204,112,2.6822212633213978,0.1908694004926732,49.76275618657206,0.806754469260242,0.08554400000000001,0.0012734300137816768,605.9074385081917,1.5716330795402402
1557,300L_GN_2.0_6.0_25_225_trail_8/GS_28.347_GN_112_L_300_Trail_8_mirror.png,8,300,28.34733547569204,112,2.6822212633213978,0.1908694004926732,49.76275618657206,0.806754469260242,0.08554400000000001,0.0012734300137816768,605.9074385081917,1.5716330795402402
1558,300L_GN_2.0_6.0_25_225_trail_8/GS_28.347_GN_112_L_300_Trail_8_flip.png,8,300,28.34733547569204,112,2.6822212633213978,0.1908694004926732,49.76275618657206,0.806754469260242,0.08554400000000001,0.0012734300137816768,605.9074385081917,1.5716330795402402
1559,300L_GN_2.0_6.0_25_225_trail_8/GS_28.347_GN_112_L_300_Trail_8_mirror_flip.png,8,300,28.34733547569204,112,2.6822212633213978,0.1908694004926732,49.76275618657206,0.806754469260242,0.08554400000000001,0.0012734300137816768,605.9074385081917,1.5716330795402402
1560,300L_GN_2.0_6.0_25_225_trail_8/GS_27.501_GN_119_L_300_Trail_8_orig.png,8,300,27.50095491084634,119,3.2995869377836455,0.2258665531121662,52.558243929611784,0.6013059098140338,0.08757000000000001,0.0012177356034870643,628.7450319927509,2.9538247550534864
1561,300L_GN_2.0_6.0_25_225_trail_8/GS_27.501_GN_119_L_300_Trail_8_mirror.png,8,300,27.50095491084634,119,3.2995869377836455,0.2258665531121662,52.558243929611784,0.6013059098140338,0.08757000000000001,0.0012177356034870643,628.7450319927509,2.9538247550534864
1562,300L_GN_2.0_6.0_25_225_trail_8/GS_27.501_GN_119_L_300_Trail_8_flip.png,8,300,27.50095491084634,119,3.2995869377836455,0.2258665531121662,52.558243929611784,0.6013059098140338,0.08757000000000001,0.0012177356034870643,628.7450319927509,2.9538247550534864
1563,300L_GN_2.0_6.0_25_225_trail_8/GS_27.501_GN_119_L_300_Trail_8_mirror_flip.png,8,300,27.50095491084634,119,3.2995869377836455,0.2258665531121662,52.558243929611784,0.6013059098140338,0.08757000000000001,0.0012177356034870643,628.7450319927509,2.9538247550534864
1564,300L_GN_2.0_6.0_25_225_trail_8/GS_26.726_GN_126_L_300_Trail_8_orig.png,8,300,26.726124191242437,126,3.1921594410958694,0.2813047564367487,48.36099134010216,1.7913293164889628,0.08561800000000001,0.002853288628933291,591.7771277260304,2.408557800229582
1565,300L_GN_2.0_6.0_25_225_trail_8/GS_26.726_GN_126_L_300_Trail_8_mirror.png,8,300,26.726124191242437,126,3.1921594410958694,0.2813047564367487,48.36099134010216,1.7913293164889628,0.08561800000000001,0.002853288628933291,591.7771277260304,2.408557800229582
1566,300L_GN_2.0_6.0_25_225_trail_8/GS_26.726_GN_126_L_300_Trail_8_flip.png,8,300,26.726124191242437,126,3.1921594410958694,0.2813047564367487,48.36099134010216,1.7913293164889628,0.08561800000000001,0.002853288628933291,591.7771277260304,2.408557800229582
1567,300L_GN_2.0_6.0_25_225_trail_8/GS_26.726_GN_126_L_300_Trail_8_mirror_flip.png,8,300,26.726124191242437,126,3.1921594410958694,0.2813047564367487,48.36099134010216,1.7913293164889628,0.08561800000000001,0.002853288628933291,591.7771277260304,2.408557800229582
1568,300L_GN_2.0_6.0_25_225_trail_8/GS_26.112_GN_132_L_300_Trail_8_orig.png,8,300,26.111648393354677,132,2.286422022755921,0.597431558685323,46.470892042109796,0.38483968606914015,0.078056,0.0006285729870110508,618.9448505330995,2.2233610558659147
1569,300L_GN_2.0_6.0_25_225_trail_8/GS_26.112_GN_132_L_300_Trail_8_mirror.png,8,300,26.111648393354677,132,2.286422022755921,0.597431558685323,46.470892042109796,0.38483968606914015,0.078056,0.0006285729870110508,618.9448505330995,2.2233610558659147
1570,300L_GN_2.0_6.0_25_225_trail_8/GS_26.112_GN_132_L_300_Trail_8_flip.png,8,300,26.111648393354677,132,2.286422022755921,0.597431558685323,46.470892042109796,0.38483968606914015,0.078056,0.0006285729870110508,618.9448505330995,2.2233610558659147
1571,300L_GN_2.0_6.0_25_225_trail_8/GS_26.112_GN_132_L_300_Trail_8_mirror_flip.png,8,300,26.111648393354677,132,2.286422022755921,0.597431558685323,46.470892042109796,0.38483968606914015,0.078056,0.0006285729870110508,618.9448505330995,2.2233610558659147
1572,300L_GN_2.0_6.0_25_225_trail_8/GS_25.0_GN_144_L_300_Trail_8_orig.png,8,300,25.0,144,2.543130231084098,0.19605138080654255,47.61704297626237,1.2271822448886747,0.083432,0.0023243700221780555,587.1921838541972,1.5449491241215456
1573,300L_GN_2.0_6.0_25_225_trail_8/GS_25.0_GN_144_L_300_Trail_8_mirror.png,8,300,25.0,144,2.543130231084098,0.19605138080654255,47.61704297626237,1.2271822448886747,0.083432,0.0023243700221780555,587.1921838541972,1.5449491241215456
1574,300L_GN_2.0_6.0_25_225_trail_8/GS_25.0_GN_144_L_300_Trail_8_flip.png,8,300,25.0,144,2.543130231084098,0.19605138080654255,47.61704297626237,1.2271822448886747,0.083432,0.0023243700221780555,587.1921838541972,1.5449491241215456
1575,300L_GN_2.0_6.0_25_225_trail_8/GS_25.0_GN_144_L_300_Trail_8_mirror_flip.png,8,300,25.0,144,2.543130231084098,0.19605138080654255,47.61704297626237,1.2271822448886747,0.083432,0.0023243700221780555,587.1921838541972,1.5449491241215456
1576,300L_GN_2.0_6.0_25_225_trail_8/GS_24.333_GN_152_L_300_Trail_8_orig.png,8,300,24.333213169614382,152,3.2869548552175516,0.5140365506188277,49.10607219787833,1.388162490571073,0.085772,0.002635840662862611,583.2085378862212,2.6432086518131563
1577,300L_GN_2.0_6.0_25_225_trail_8/GS_24.333_GN_152_L_300_Trail_8_mirror.png,8,300,24.333213169614382,152,3.2869548552175516,0.5140365506188277,49.10607219787833,1.388162490571073,0.085772,0.002635840662862611,583.2085378862212,2.6432086518131563
1578,300L_GN_2.0_6.0_25_225_trail_8/GS_24.333_GN_152_L_300_Trail_8_flip.png,8,300,24.333213169614382,152,3.2869548552175516,0.5140365506188277,49.10607219787833,1.388162490571073,0.085772,0.002635840662862611,583.2085378862212,2.6432086518131563
1579,300L_GN_2.0_6.0_25_225_trail_8/GS_24.333_GN_152_L_300_Trail_8_mirror_flip.png,8,300,24.333213169614382,152,3.2869548552175516,0.5140365506188277,49.10607219787833,1.388162490571073,0.085772,0.002635840662862611,583.2085378862212,2.6432086518131563
1580,300L_GN_2.0_6.0_25_225_trail_8/GS_23.717_GN_160_L_300_Trail_8_orig.png,8,300,23.717082451262844,160,1.6345410762442145,0.9969100194847722,52.50087984012166,0.716740653863689,0.09362600000000001,0.001148435457481174,570.7504438116703,2.012490648352264
1581,300L_GN_2.0_6.0_25_225_trail_8/GS_23.717_GN_160_L_300_Trail_8_mirror.png,8,300,23.717082451262844,160,1.6345410762442145,0.9969100194847722,52.50087984012166,0.716740653863689,0.09362600000000001,0.001148435457481174,570.7504438116703,2.012490648352264
1582,300L_GN_2.0_6.0_25_225_trail_8/GS_23.717_GN_160_L_300_Trail_8_flip.png,8,300,23.717082451262844,160,1.6345410762442145,0.9969100194847722,52.50087984012166,0.716740653863689,0.09362600000000001,0.001148435457481174,570.7504438116703,2.012490648352264
1583,300L_GN_2.0_6.0_25_225_trail_8/GS_23.717_GN_160_L_300_Trail_8_mirror_flip.png,8,300,23.717082451262844,160,1.6345410762442145,0.9969100194847722,52.50087984012166,0.716740653863689,0.09362600000000001,0.001148435457481174,570.7504438116703,2.012490648352264
1584,300L_GN_2.0_6.0_25_225_trail_8/GS_23.146_GN_168_L_300_Trail_8_orig.png,8,300,23.145502494313785,168,2.449033471349553,0.18036726927968275,50.78899455708114,0.5439737266833959,0.08696200000000001,0.0009310295376624741,613.6098166045135,2.4546167681593225
1585,300L_GN_2.0_6.0_25_225_trail_8/GS_23.146_GN_168_L_300_Trail_8_mirror.png,8,300,23.145502494313785,168,2.449033471349553,0.18036726927968275,50.78899455708114,0.5439737266833959,0.08696200000000001,0.0009310295376624741,613.6098166045135,2.4546167681593225
1586,300L_GN_2.0_6.0_25_225_trail_8/GS_23.146_GN_168_L_300_Trail_8_flip.png,8,300,23.145502494313785,168,2.449033471349553,0.18036726927968275,50.78899455708114,0.5439737266833959,0.08696200000000001,0.0009310295376624741,613.6098166045135,2.4546167681593225
1587,300L_GN_2.0_6.0_25_225_trail_8/GS_23.146_GN_168_L_300_Trail_8_mirror_flip.png,8,300,23.145502494313785,168,2.449033471349553,0.18036726927968275,50.78899455708114,0.5439737266833959,0.08696200000000001,0.0009310295376624741,613.6098166045135,2.4546167681593225
1588,300L_GN_2.0_6.0_25_225_trail_8/GS_22.486_GN_178_L_300_Trail_8_orig.png,8,300,22.48595066987584,178,2.891992382172382,0.15674052618013778,46.78567654579168,1.0258590440231314,0.081502,0.0016783372724217282,586.1846965808752,2.7409389464281873
1589,300L_GN_2.0_6.0_25_225_trail_8/GS_22.486_GN_178_L_300_Trail_8_mirror.png,8,300,22.48595066987584,178,2.891992382172382,0.15674052618013778,46.78567654579168,1.0258590440231314,0.081502,0.0016783372724217282,586.1846965808752,2.7409389464281873
1590,300L_GN_2.0_6.0_25_225_trail_8/GS_22.486_GN_178_L_300_Trail_8_flip.png,8,300,22.48595066987584,178,2.891992382172382,0.15674052618013778,46.78567654579168,1.0258590440231314,0.081502,0.0016783372724217282,586.1846965808752,2.7409389464281873
1591,300L_GN_2.0_6.0_25_225_trail_8/GS_22.486_GN_178_L_300_Trail_8_mirror_flip.png,8,300,22.48595066987584,178,2.891992382172382,0.15674052618013778,46.78567654579168,1.0258590440231314,0.081502,0.0016783372724217282,586.1846965808752,2.7409389464281873
1592,300L_GN_2.0_6.0_25_225_trail_8/GS_21.213_GN_200_L_300_Trail_8_orig.png,8,300,21.213203435596427,200,2.294349392777524,0.1802902123349454,46.406230586785554,0.522282991437904,0.085644,0.0008368416815622884,552.0746113067771,2.4101013414155665
1593,300L_GN_2.0_6.0_25_225_trail_8/GS_21.213_GN_200_L_300_Trail_8_mirror.png,8,300,21.213203435596427,200,2.294349392777524,0.1802902123349454,46.406230586785554,0.522282991437904,0.085644,0.0008368416815622884,552.0746113067771,2.4101013414155665
1594,300L_GN_2.0_6.0_25_225_trail_8/GS_21.213_GN_200_L_300_Trail_8_flip.png,8,300,21.213203435596427,200,2.294349392777524,0.1802902123349454,46.406230586785554,0.522282991437904,0.085644,0.0008368416815622884,552.0746113067771,2.4101013414155665
1595,300L_GN_2.0_6.0_25_225_trail_8/GS_21.213_GN_200_L_300_Trail_8_mirror_flip.png,8,300,21.213203435596427,200,2.294349392777524,0.1802902123349454,46.406230586785554,0.522282991437904,0.085644,0.0008368416815622884,552.0746113067771,2.4101013414155665
1596,300L_GN_2.0_6.0_25_225_trail_8/GS_20.0_GN_225_L_300_Trail_8_orig.png,8,300,20.0,225,2.3783408592251964,0.06280883918759678,48.60696139236834,0.40828660566858194,0.08342200000000002,0.0007376557462665076,601.0044118464987,2.0421378066906377
1597,300L_GN_2.0_6.0_25_225_trail_8/GS_20.0_GN_225_L_300_Trail_8_mirror.png,8,300,20.0,225,2.3783408592251964,0.06280883918759678,48.60696139236834,0.40828660566858194,0.08342200000000002,0.0007376557462665076,601.0044118464987,2.0421378066906377
1598,300L_GN_2.0_6.0_25_225_trail_8/GS_20.0_GN_225_L_300_Trail_8_flip.png,8,300,20.0,225,2.3783408592251964,0.06280883918759678,48.60696139236834,0.40828660566858194,0.08342200000000002,0.0007376557462665076,601.0044118464987,2.0421378066906377
1599,300L_GN_2.0_6.0_25_225_trail_8/GS_20.0_GN_225_L_300_Trail_8_mirror_flip.png,8,300,20.0,225,2.3783408592251964,0.06280883918759678,48.60696139236834,0.40828660566858194,0.08342200000000002,0.0007376557462665076,601.0044118464987,2.0421378066906377
1600,300L_GN_2.0_6.0_25_225_trail_9/GS_60.0_GN_25_L_300_Trail_9_orig.png,9,300,60.0,25,2.9897409963426487,0.6579384089590078,48.33256098193635,1.3515667200820345,0.07719600000000001,0.002398788027317126,678.865483484981,3.0655156844271896
1601,300L_GN_2.0_6.0_25_225_trail_9/GS_60.0_GN_25_L_300_Trail_9_mirror.png,9,300,60.0,25,2.9897409963426487,0.6579384089590078,48.33256098193635,1.3515667200820345,0.07719600000000001,0.002398788027317126,678.865483484981,3.0655156844271896
1602,300L_GN_2.0_6.0_25_225_trail_9/GS_60.0_GN_25_L_300_Trail_9_flip.png,9,300,60.0,25,2.9897409963426487,0.6579384089590078,48.33256098193635,1.3515667200820345,0.07719600000000001,0.002398788027317126,678.865483484981,3.0655156844271896
1603,300L_GN_2.0_6.0_25_225_trail_9/GS_60.0_GN_25_L_300_Trail_9_mirror_flip.png,9,300,60.0,25,2.9897409963426487,0.6579384089590078,48.33256098193635,1.3515667200820345,0.07719600000000001,0.002398788027317126,678.865483484981,3.0655156844271896
1604,300L_GN_2.0_6.0_25_225_trail_9/GS_58.835_GN_26_L_300_Trail_9_orig.png,9,300,58.834840541455215,26,3.4555212880745882,1.0276861443798584,52.60520380509755,0.334217367777829,0.081978,0.0008194974069513589,708.6153393271485,1.3379028259774755
1605,300L_GN_2.0_6.0_25_225_trail_9/GS_58.835_GN_26_L_300_Trail_9_mirror.png,9,300,58.834840541455215,26,3.4555212880745882,1.0276861443798584,52.60520380509755,0.334217367777829,0.081978,0.0008194974069513589,708.6153393271485,1.3379028259774755
1606,300L_GN_2.0_6.0_25_225_trail_9/GS_58.835_GN_26_L_300_Trail_9_flip.png,9,300,58.834840541455215,26,3.4555212880745882,1.0276861443798584,52.60520380509755,0.334217367777829,0.081978,0.0008194974069513589,708.6153393271485,1.3379028259774755
1607,300L_GN_2.0_6.0_25_225_trail_9/GS_58.835_GN_26_L_300_Trail_9_mirror_flip.png,9,300,58.834840541455215,26,3.4555212880745882,1.0276861443798584,52.60520380509755,0.334217367777829,0.081978,0.0008194974069513589,708.6153393271485,1.3379028259774755
1608,300L_GN_2.0_6.0_25_225_trail_9/GS_57.735_GN_27_L_300_Trail_9_orig.png,9,300,57.735026918962575,27,3.8418953123620776,0.14081644828368162,53.76646431062187,0.8843050542251403,0.08265200000000002,0.0018185862641073712,710.0001433794702,1.10400671883273
1609,300L_GN_2.0_6.0_25_225_trail_9/GS_57.735_GN_27_L_300_Trail_9_mirror.png,9,300,57.735026918962575,27,3.8418953123620776,0.14081644828368162,53.76646431062187,0.8843050542251403,0.08265200000000002,0.0018185862641073712,710.0001433794702,1.10400671883273
1610,300L_GN_2.0_6.0_25_225_trail_9/GS_57.735_GN_27_L_300_Trail_9_flip.png,9,300,57.735026918962575,27,3.8418953123620776,0.14081644828368162,53.76646431062187,0.8843050542251403,0.08265200000000002,0.0018185862641073712,710.0001433794702,1.10400671883273
1611,300L_GN_2.0_6.0_25_225_trail_9/GS_57.735_GN_27_L_300_Trail_9_mirror_flip.png,9,300,57.735026918962575,27,3.8418953123620776,0.14081644828368162,53.76646431062187,0.8843050542251403,0.08265200000000002,0.0018185862641073712,710.0001433794702,1.10400671883273
1612,300L_GN_2.0_6.0_25_225_trail_9/GS_56.695_GN_28_L_300_Trail_9_orig.png,9,300,56.69467095138408,28,2.490948471926912,0.16993851925752204,55.77966968484638,0.27979815900668414,0.08706200000000001,0.000302615267294963,688.8033999655025,2.080571377690324
1613,300L_GN_2.0_6.0_25_225_trail_9/GS_56.695_GN_28_L_300_Trail_9_mirror.png,9,300,56.69467095138408,28,2.490948471926912,0.16993851925752204,55.77966968484638,0.27979815900668414,0.08706200000000001,0.000302615267294963,688.8033999655025,2.080571377690324
1614,300L_GN_2.0_6.0_25_225_trail_9/GS_56.695_GN_28_L_300_Trail_9_flip.png,9,300,56.69467095138408,28,2.490948471926912,0.16993851925752204,55.77966968484638,0.27979815900668414,0.08706200000000001,0.000302615267294963,688.8033999655025,2.080571377690324
1615,300L_GN_2.0_6.0_25_225_trail_9/GS_56.695_GN_28_L_300_Trail_9_mirror_flip.png,9,300,56.69467095138408,28,2.490948471926912,0.16993851925752204,55.77966968484638,0.27979815900668414,0.08706200000000001,0.000302615267294963,688.8033999655025,2.080571377690324
1616,300L_GN_2.0_6.0_25_225_trail_9/GS_55.709_GN_29_L_300_Trail_9_orig.png,9,300,55.70860145311556,29,3.426254021439456,0.20125716925431147,56.1033032561358,1.2074399535630187,0.08876600000000001,0.002171014509394166,689.3564437319201,1.319284325830251
1617,300L_GN_2.0_6.0_25_225_trail_9/GS_55.709_GN_29_L_300_Trail_9_mirror.png,9,300,55.70860145311556,29,3.426254021439456,0.20125716925431147,56.1033032561358,1.2074399535630187,0.08876600000000001,0.002171014509394166,689.3564437319201,1.319284325830251
1618,300L_GN_2.0_6.0_25_225_trail_9/GS_55.709_GN_29_L_300_Trail_9_flip.png,9,300,55.70860145311556,29,3.426254021439456,0.20125716925431147,56.1033032561358,1.2074399535630187,0.08876600000000001,0.002171014509394166,689.3564437319201,1.319284325830251
1619,300L_GN_2.0_6.0_25_225_trail_9/GS_55.709_GN_29_L_300_Trail_9_mirror_flip.png,9,300,55.70860145311556,29,3.426254021439456,0.20125716925431147,56.1033032561358,1.2074399535630187,0.08876600000000001,0.002171014509394166,689.3564437319201,1.319284325830251
1620,300L_GN_2.0_6.0_25_225_trail_9/GS_54.772_GN_30_L_300_Trail_9_orig.png,9,300,54.772255750516614,30,3.473435215260629,0.18853529322846335,53.766221436004415,1.0797120274224643,0.086634,0.0016593926599813573,672.4267544121926,2.663014988599299
1621,300L_GN_2.0_6.0_25_225_trail_9/GS_54.772_GN_30_L_300_Trail_9_mirror.png,9,300,54.772255750516614,30,3.473435215260629,0.18853529322846335,53.766221436004415,1.0797120274224643,0.086634,0.0016593926599813573,672.4267544121926,2.663014988599299
1622,300L_GN_2.0_6.0_25_225_trail_9/GS_54.772_GN_30_L_300_Trail_9_flip.png,9,300,54.772255750516614,30,3.473435215260629,0.18853529322846335,53.766221436004415,1.0797120274224643,0.086634,0.0016593926599813573,672.4267544121926,2.663014988599299
1623,300L_GN_2.0_6.0_25_225_trail_9/GS_54.772_GN_30_L_300_Trail_9_mirror_flip.png,9,300,54.772255750516614,30,3.473435215260629,0.18853529322846335,53.766221436004415,1.0797120274224643,0.086634,0.0016593926599813573,672.4267544121926,2.663014988599299
1624,300L_GN_2.0_6.0_25_225_trail_9/GS_53.882_GN_31_L_300_Trail_9_orig.png,9,300,53.881590608032475,31,3.2965747652034034,0.18881741583432543,49.657416513558225,0.6957991865419287,0.07660800000000001,0.001039680720221357,696.2446552397372,1.9382510074224666
1625,300L_GN_2.0_6.0_25_225_trail_9/GS_53.882_GN_31_L_300_Trail_9_mirror.png,9,300,53.881590608032475,31,3.2965747652034034,0.18881741583432543,49.657416513558225,0.6957991865419287,0.07660800000000001,0.001039680720221357,696.2446552397372,1.9382510074224666
1626,300L_GN_2.0_6.0_25_225_trail_9/GS_53.882_GN_31_L_300_Trail_9_flip.png,9,300,53.881590608032475,31,3.2965747652034034,0.18881741583432543,49.657416513558225,0.6957991865419287,0.07660800000000001,0.001039680720221357,696.2446552397372,1.9382510074224666
1627,300L_GN_2.0_6.0_25_225_trail_9/GS_53.882_GN_31_L_300_Trail_9_mirror_flip.png,9,300,53.881590608032475,31,3.2965747652034034,0.18881741583432543,49.657416513558225,0.6957991865419287,0.07660800000000001,0.001039680720221357,696.2446552397372,1.9382510074224666
1628,300L_GN_2.0_6.0_25_225_trail_9/GS_53.033_GN_32_L_300_Trail_9_orig.png,9,300,53.03300858899106,32,4.093668565254376,0.7478230286244163,54.91203611919883,0.55516687106928,0.08671400000000001,0.000825750567665566,683.0609758345361,1.0039625794854934
1629,300L_GN_2.0_6.0_25_225_trail_9/GS_53.033_GN_32_L_300_Trail_9_mirror.png,9,300,53.03300858899106,32,4.093668565254376,0.7478230286244163,54.91203611919883,0.55516687106928,0.08671400000000001,0.000825750567665566,683.0609758345361,1.0039625794854934
1630,300L_GN_2.0_6.0_25_225_trail_9/GS_53.033_GN_32_L_300_Trail_9_flip.png,9,300,53.03300858899106,32,4.093668565254376,0.7478230286244163,54.91203611919883,0.55516687106928,0.08671400000000001,0.000825750567665566,683.0609758345361,1.0039625794854934
1631,300L_GN_2.0_6.0_25_225_trail_9/GS_53.033_GN_32_L_300_Trail_9_mirror_flip.png,9,300,53.03300858899106,32,4.093668565254376,0.7478230286244163,54.91203611919883,0.55516687106928,0.08671400000000001,0.000825750567665566,683.0609758345361,1.0039625794854934
1632,300L_GN_2.0_6.0_25_225_trail_9/GS_52.223_GN_33_L_300_Trail_9_orig.png,9,300,52.223296786709355,33,3.2371835186683837,0.3421016379766415,54.459504612590436,0.9757554592615792,0.08255000000000001,0.0013909996405463223,707.3858731092122,1.475489401380976
1633,300L_GN_2.0_6.0_25_225_trail_9/GS_52.223_GN_33_L_300_Trail_9_mirror.png,9,300,52.223296786709355,33,3.2371835186683837,0.3421016379766415,54.459504612590436,0.9757554592615792,0.08255000000000001,0.0013909996405463223,707.3858731092122,1.475489401380976
1634,300L_GN_2.0_6.0_25_225_trail_9/GS_52.223_GN_33_L_300_Trail_9_flip.png,9,300,52.223296786709355,33,3.2371835186683837,0.3421016379766415,54.459504612590436,0.9757554592615792,0.08255000000000001,0.0013909996405463223,707.3858731092122,1.475489401380976
1635,300L_GN_2.0_6.0_25_225_trail_9/GS_52.223_GN_33_L_300_Trail_9_mirror_flip.png,9,300,52.223296786709355,33,3.2371835186683837,0.3421016379766415,54.459504612590436,0.9757554592615792,0.08255000000000001,0.0013909996405463223,707.3858731092122,1.475489401380976
1636,300L_GN_2.0_6.0_25_225_trail_9/GS_51.45_GN_34_L_300_Trail_9_orig.png,9,300,51.44957554275265,34,3.1085582121462907,0.4323117509484501,53.10510314883403,0.6682405704685791,0.086094,0.001332975618681753,670.7702541301927,2.6340110536228774
1637,300L_GN_2.0_6.0_25_225_trail_9/GS_51.45_GN_34_L_300_Trail_9_mirror.png,9,300,51.44957554275265,34,3.1085582121462907,0.4323117509484501,53.10510314883403,0.6682405704685791,0.086094,0.001332975618681753,670.7702541301927,2.6340110536228774
1638,300L_GN_2.0_6.0_25_225_trail_9/GS_51.45_GN_34_L_300_Trail_9_flip.png,9,300,51.44957554275265,34,3.1085582121462907,0.4323117509484501,53.10510314883403,0.6682405704685791,0.086094,0.001332975618681753,670.7702541301927,2.6340110536228774
1639,300L_GN_2.0_6.0_25_225_trail_9/GS_51.45_GN_34_L_300_Trail_9_mirror_flip.png,9,300,51.44957554275265,34,3.1085582121462907,0.4323117509484501,53.10510314883403,0.6682405704685791,0.086094,0.001332975618681753,670.7702541301927,2.6340110536228774
1640,300L_GN_2.0_6.0_25_225_trail_9/GS_50.709_GN_35_L_300_Trail_9_orig.png,9,300,50.709255283710995,35,3.3431498661580816,0.2450782129219844,54.86804595722468,1.0596589900760507,0.08779400000000001,0.0018535544232635825,674.9276747141006,1.3671189269422337
1641,300L_GN_2.0_6.0_25_225_trail_9/GS_50.709_GN_35_L_300_Trail_9_mirror.png,9,300,50.709255283710995,35,3.3431498661580816,0.2450782129219844,54.86804595722468,1.0596589900760507,0.08779400000000001,0.0018535544232635825,674.9276747141006,1.3671189269422337
1642,300L_GN_2.0_6.0_25_225_trail_9/GS_50.709_GN_35_L_300_Trail_9_flip.png,9,300,50.709255283710995,35,3.3431498661580816,0.2450782129219844,54.86804595722468,1.0596589900760507,0.08779400000000001,0.0018535544232635825,674.9276747141006,1.3671189269422337
1643,300L_GN_2.0_6.0_25_225_trail_9/GS_50.709_GN_35_L_300_Trail_9_mirror_flip.png,9,300,50.709255283710995,35,3.3431498661580816,0.2450782129219844,54.86804595722468,1.0596589900760507,0.08779400000000001,0.0018535544232635825,674.9276747141006,1.3671189269422337
1644,300L_GN_2.0_6.0_25_225_trail_9/GS_50.0_GN_36_L_300_Trail_9_orig.png,9,300,50.0,36,3.3078597627904487,0.09965302497914137,51.70208365110976,0.4180033845401625,0.083556,0.0007866028222680136,666.4631787578808,2.4100884052655798
1645,300L_GN_2.0_6.0_25_225_trail_9/GS_50.0_GN_36_L_300_Trail_9_mirror.png,9,300,50.0,36,3.3078597627904487,0.09965302497914137,51.70208365110976,0.4180033845401625,0.083556,0.0007866028222680136,666.4631787578808,2.4100884052655798
1646,300L_GN_2.0_6.0_25_225_trail_9/GS_50.0_GN_36_L_300_Trail_9_flip.png,9,300,50.0,36,3.3078597627904487,0.09965302497914137,51.70208365110976,0.4180033845401625,0.083556,0.0007866028222680136,666.4631787578808,2.4100884052655798
1647,300L_GN_2.0_6.0_25_225_trail_9/GS_50.0_GN_36_L_300_Trail_9_mirror_flip.png,9,300,50.0,36,3.3078597627904487,0.09965302497914137,51.70208365110976,0.4180033845401625,0.083556,0.0007866028222680136,666.4631787578808,2.4100884052655798
1648,300L_GN_2.0_6.0_25_225_trail_9/GS_49.32_GN_37_L_300_Trail_9_orig.png,9,300,49.31969619160719,37,3.4212289625346037,0.7078169443608204,55.94830923126288,0.7514713730339885,0.08770400000000002,0.0013216746952257202,685.348139833023,1.5308441210618382
1649,300L_GN_2.0_6.0_25_225_trail_9/GS_49.32_GN_37_L_300_Trail_9_mirror.png,9,300,49.31969619160719,37,3.4212289625346037,0.7078169443608204,55.94830923126288,0.7514713730339885,0.08770400000000002,0.0013216746952257202,685.348139833023,1.5308441210618382
1650,300L_GN_2.0_6.0_25_225_trail_9/GS_49.32_GN_37_L_300_Trail_9_flip.png,9,300,49.31969619160719,37,3.4212289625346037,0.7078169443608204,55.94830923126288,0.7514713730339885,0.08770400000000002,0.0013216746952257202,685.348139833023,1.5308441210618382
1651,300L_GN_2.0_6.0_25_225_trail_9/GS_49.32_GN_37_L_300_Trail_9_mirror_flip.png,9,300,49.31969619160719,37,3.4212289625346037,0.7078169443608204,55.94830923126288,0.7514713730339885,0.08770400000000002,0.0013216746952257202,685.348139833023,1.5308441210618382
1652,300L_GN_2.0_6.0_25_225_trail_9/GS_48.666_GN_38_L_300_Trail_9_orig.png,9,300,48.666426339228764,38,2.274777899926277,0.3140319564166965,50.756340811533605,0.7118785799912044,0.079646,0.00109304345750752,682.1808197044973,2.388162365343326
1653,300L_GN_2.0_6.0_25_225_trail_9/GS_48.666_GN_38_L_300_Trail_9_mirror.png,9,300,48.666426339228764,38,2.274777899926277,0.3140319564166965,50.756340811533605,0.7118785799912044,0.079646,0.00109304345750752,682.1808197044973,2.388162365343326
1654,300L_GN_2.0_6.0_25_225_trail_9/GS_48.666_GN_38_L_300_Trail_9_flip.png,9,300,48.666426339228764,38,2.274777899926277,0.3140319564166965,50.756340811533605,0.7118785799912044,0.079646,0.00109304345750752,682.1808197044973,2.388162365343326
1655,300L_GN_2.0_6.0_25_225_trail_9/GS_48.666_GN_38_L_300_Trail_9_mirror_flip.png,9,300,48.666426339228764,38,2.274777899926277,0.3140319564166965,50.756340811533605,0.7118785799912044,0.079646,0.00109304345750752,682.1808197044973,2.388162365343326
1656,300L_GN_2.0_6.0_25_225_trail_9/GS_48.038_GN_39_L_300_Trail_9_orig.png,9,300,48.03844614152614,39,3.225223449933954,0.5052713616697927,53.68004682926172,0.8104223788542795,0.08514200000000001,0.001393088654752455,685.5385019406401,1.899579868871837
1657,300L_GN_2.0_6.0_25_225_trail_9/GS_48.038_GN_39_L_300_Trail_9_mirror.png,9,300,48.03844614152614,39,3.225223449933954,0.5052713616697927,53.68004682926172,0.8104223788542795,0.08514200000000001,0.001393088654752455,685.5385019406401,1.899579868871837
1658,300L_GN_2.0_6.0_25_225_trail_9/GS_48.038_GN_39_L_300_Trail_9_flip.png,9,300,48.03844614152614,39,3.225223449933954,0.5052713616697927,53.68004682926172,0.8104223788542795,0.08514200000000001,0.001393088654752455,685.5385019406401,1.899579868871837
1659,300L_GN_2.0_6.0_25_225_trail_9/GS_48.038_GN_39_L_300_Trail_9_mirror_flip.png,9,300,48.03844614152614,39,3.225223449933954,0.5052713616697927,53.68004682926172,0.8104223788542795,0.08514200000000001,0.001393088654752455,685.5385019406401,1.899579868871837
1660,300L_GN_2.0_6.0_25_225_trail_9/GS_47.434_GN_40_L_300_Trail_9_orig.png,9,300,47.43416490252569,40,3.526262384283599,0.3410408278722606,48.58185176350426,0.551881735948991,0.07605800000000001,0.0007992346338841945,688.2471553925515,1.52032558992286
1661,300L_GN_2.0_6.0_25_225_trail_9/GS_47.434_GN_40_L_300_Trail_9_mirror.png,9,300,47.43416490252569,40,3.526262384283599,0.3410408278722606,48.58185176350426,0.551881735948991,0.07605800000000001,0.0007992346338841945,688.2471553925515,1.52032558992286
1662,300L_GN_2.0_6.0_25_225_trail_9/GS_47.434_GN_40_L_300_Trail_9_flip.png,9,300,47.43416490252569,40,3.526262384283599,0.3410408278722606,48.58185176350426,0.551881735948991,0.07605800000000001,0.0007992346338841945,688.2471553925515,1.52032558992286
1663,300L_GN_2.0_6.0_25_225_trail_9/GS_47.434_GN_40_L_300_Trail_9_mirror_flip.png,9,300,47.43416490252569,40,3.526262384283599,0.3410408278722606,48.58185176350426,0.551881735948991,0.07605800000000001,0.0007992346338841945,688.2471553925515,1.52032558992286
1664,300L_GN_2.0_6.0_25_225_trail_9/GS_46.852_GN_41_L_300_Trail_9_orig.png,9,300,46.85212856658182,41,2.998935379167707,0.296328199335487,53.107423085558466,0.5017408481209953,0.084158,0.0006611323619367004,685.3701812435995,2.4776981855765325
1665,300L_GN_2.0_6.0_25_225_trail_9/GS_46.852_GN_41_L_300_Trail_9_mirror.png,9,300,46.85212856658182,41,2.998935379167707,0.296328199335487,53.107423085558466,0.5017408481209953,0.084158,0.0006611323619367004,685.3701812435995,2.4776981855765325
1666,300L_GN_2.0_6.0_25_225_trail_9/GS_46.852_GN_41_L_300_Trail_9_flip.png,9,300,46.85212856658182,41,2.998935379167707,0.296328199335487,53.107423085558466,0.5017408481209953,0.084158,0.0006611323619367004,685.3701812435995,2.4776981855765325
1667,300L_GN_2.0_6.0_25_225_trail_9/GS_46.852_GN_41_L_300_Trail_9_mirror_flip.png,9,300,46.85212856658182,41,2.998935379167707,0.296328199335487,53.107423085558466,0.5017408481209953,0.084158,0.0006611323619367004,685.3701812435995,2.4776981855765325
1668,300L_GN_2.0_6.0_25_225_trail_9/GS_45.75_GN_43_L_300_Trail_9_orig.png,9,300,45.7495710997814,43,2.579525442572271,0.24157268859766107,50.331427170961106,0.9562159765422303,0.08087000000000001,0.001587173588489932,659.9484857532317,2.513373345867195
1669,300L_GN_2.0_6.0_25_225_trail_9/GS_45.75_GN_43_L_300_Trail_9_mirror.png,9,300,45.7495710997814,43,2.579525442572271,0.24157268859766107,50.331427170961106,0.9562159765422303,0.08087000000000001,0.001587173588489932,659.9484857532317,2.513373345867195
1670,300L_GN_2.0_6.0_25_225_trail_9/GS_45.75_GN_43_L_300_Trail_9_flip.png,9,300,45.7495710997814,43,2.579525442572271,0.24157268859766107,50.331427170961106,0.9562159765422303,0.08087000000000001,0.001587173588489932,659.9484857532317,2.513373345867195
1671,300L_GN_2.0_6.0_25_225_trail_9/GS_45.75_GN_43_L_300_Trail_9_mirror_flip.png,9,300,45.7495710997814,43,2.579525442572271,0.24157268859766107,50.331427170961106,0.9562159765422303,0.08087000000000001,0.001587173588489932,659.9484857532317,2.513373345867195
1672,300L_GN_2.0_6.0_25_225_trail_9/GS_45.227_GN_44_L_300_Trail_9_orig.png,9,300,45.22670168666454,44,4.299238177972711,1.0464767747441595,53.12450512383147,0.4453872560976654,0.086378,0.0009500610506699048,666.3639864505232,2.4297834680952093
1673,300L_GN_2.0_6.0_25_225_trail_9/GS_45.227_GN_44_L_300_Trail_9_mirror.png,9,300,45.22670168666454,44,4.299238177972711,1.0464767747441595,53.12450512383147,0.4453872560976654,0.086378,0.0009500610506699048,666.3639864505232,2.4297834680952093
1674,300L_GN_2.0_6.0_25_225_trail_9/GS_45.227_GN_44_L_300_Trail_9_flip.png,9,300,45.22670168666454,44,4.299238177972711,1.0464767747441595,53.12450512383147,0.4453872560976654,0.086378,0.0009500610506699048,666.3639864505232,2.4297834680952093
1675,300L_GN_2.0_6.0_25_225_trail_9/GS_45.227_GN_44_L_300_Trail_9_mirror_flip.png,9,300,45.22670168666454,44,4.299238177972711,1.0464767747441595,53.12450512383147,0.4453872560976654,0.086378,0.0009500610506699048,666.3639864505232,2.4297834680952093
1676,300L_GN_2.0_6.0_25_225_trail_9/GS_43.759_GN_47_L_300_Trail_9_orig.png,9,300,43.75949744936837,47,3.3719596045190343,0.2814915288274858,51.581135847018935,0.6220881043841018,0.08208400000000002,0.0007443816225566062,674.670137046099,1.9889199822217434
1677,300L_GN_2.0_6.0_25_225_trail_9/GS_43.759_GN_47_L_300_Trail_9_mirror.png,9,300,43.75949744936837,47,3.3719596045190343,0.2814915288274858,51.581135847018935,0.6220881043841018,0.08208400000000002,0.0007443816225566062,674.670137046099,1.9889199822217434
1678,300L_GN_2.0_6.0_25_225_trail_9/GS_43.759_GN_47_L_300_Trail_9_flip.png,9,300,43.75949744936837,47,3.3719596045190343,0.2814915288274858,51.581135847018935,0.6220881043841018,0.08208400000000002,0.0007443816225566062,674.670137046099,1.9889199822217434
1679,300L_GN_2.0_6.0_25_225_trail_9/GS_43.759_GN_47_L_300_Trail_9_mirror_flip.png,9,300,43.75949744936837,47,3.3719596045190343,0.2814915288274858,51.581135847018935,0.6220881043841018,0.08208400000000002,0.0007443816225566062,674.670137046099,1.9889199822217434
1680,300L_GN_2.0_6.0_25_225_trail_9/GS_43.301_GN_48_L_300_Trail_9_orig.png,9,300,43.30127018922194,48,2.972966332379794,0.9273142557921091,52.376111365966,0.4162563749648085,0.08468200000000001,0.0005207456192806591,661.3402250800764,1.6349823912833146
1681,300L_GN_2.0_6.0_25_225_trail_9/GS_43.301_GN_48_L_300_Trail_9_mirror.png,9,300,43.30127018922194,48,2.972966332379794,0.9273142557921091,52.376111365966,0.4162563749648085,0.08468200000000001,0.0005207456192806591,661.3402250800764,1.6349823912833146
1682,300L_GN_2.0_6.0_25_225_trail_9/GS_43.301_GN_48_L_300_Trail_9_flip.png,9,300,43.30127018922194,48,2.972966332379794,0.9273142557921091,52.376111365966,0.4162563749648085,0.08468200000000001,0.0005207456192806591,661.3402250800764,1.6349823912833146
1683,300L_GN_2.0_6.0_25_225_trail_9/GS_43.301_GN_48_L_300_Trail_9_mirror_flip.png,9,300,43.30127018922194,48,2.972966332379794,0.9273142557921091,52.376111365966,0.4162563749648085,0.08468200000000001,0.0005207456192806591,661.3402250800764,1.6349823912833146
1684,300L_GN_2.0_6.0_25_225_trail_9/GS_42.426_GN_50_L_300_Trail_9_orig.png,9,300,42.42640687119285,50,3.205733395970538,0.18561695450639462,52.45535825151338,0.5471116986179211,0.086396,0.0008719082520540801,650.3200336051457,1.0412299940355978
1685,300L_GN_2.0_6.0_25_225_trail_9/GS_42.426_GN_50_L_300_Trail_9_mirror.png,9,300,42.42640687119285,50,3.205733395970538,0.18561695450639462,52.45535825151338,0.5471116986179211,0.086396,0.0008719082520540801,650.3200336051457,1.0412299940355978
1686,300L_GN_2.0_6.0_25_225_trail_9/GS_42.426_GN_50_L_300_Trail_9_flip.png,9,300,42.42640687119285,50,3.205733395970538,0.18561695450639462,52.45535825151338,0.5471116986179211,0.086396,0.0008719082520540801,650.3200336051457,1.0412299940355978
1687,300L_GN_2.0_6.0_25_225_trail_9/GS_42.426_GN_50_L_300_Trail_9_mirror_flip.png,9,300,42.42640687119285,50,3.205733395970538,0.18561695450639462,52.45535825151338,0.5471116986179211,0.086396,0.0008719082520540801,650.3200336051457,1.0412299940355978
1688,300L_GN_2.0_6.0_25_225_trail_9/GS_41.603_GN_52_L_300_Trail_9_orig.png,9,300,41.60251471689219,52,3.548944805267922,1.1681969756684638,47.52468639993295,0.45906494407172566,0.080108,0.000512499756097507,629.4727831007576,1.6422246594328822
1689,300L_GN_2.0_6.0_25_225_trail_9/GS_41.603_GN_52_L_300_Trail_9_mirror.png,9,300,41.60251471689219,52,3.548944805267922,1.1681969756684638,47.52468639993295,0.45906494407172566,0.080108,0.000512499756097507,629.4727831007576,1.6422246594328822
1690,300L_GN_2.0_6.0_25_225_trail_9/GS_41.603_GN_52_L_300_Trail_9_flip.png,9,300,41.60251471689219,52,3.548944805267922,1.1681969756684638,47.52468639993295,0.45906494407172566,0.080108,0.000512499756097507,629.4727831007576,1.6422246594328822
1691,300L_GN_2.0_6.0_25_225_trail_9/GS_41.603_GN_52_L_300_Trail_9_mirror_flip.png,9,300,41.60251471689219,52,3.548944805267922,1.1681969756684638,47.52468639993295,0.45906494407172566,0.080108,0.000512499756097507,629.4727831007576,1.6422246594328822
1692,300L_GN_2.0_6.0_25_225_trail_9/GS_41.208_GN_53_L_300_Trail_9_orig.png,9,300,41.20816918460671,53,2.4095256679217907,0.17402707568381595,43.92909908612396,0.5561372554672978,0.07263800000000001,0.000930277377990027,648.1937141335145,3.2995490750196868
1693,300L_GN_2.0_6.0_25_225_trail_9/GS_41.208_GN_53_L_300_Trail_9_mirror.png,9,300,41.20816918460671,53,2.4095256679217907,0.17402707568381595,43.92909908612396,0.5561372554672978,0.07263800000000001,0.000930277377990027,648.1937141335145,3.2995490750196868
1694,300L_GN_2.0_6.0_25_225_trail_9/GS_41.208_GN_53_L_300_Trail_9_flip.png,9,300,41.20816918460671,53,2.4095256679217907,0.17402707568381595,43.92909908612396,0.5561372554672978,0.07263800000000001,0.000930277377990027,648.1937141335145,3.2995490750196868
1695,300L_GN_2.0_6.0_25_225_trail_9/GS_41.208_GN_53_L_300_Trail_9_mirror_flip.png,9,300,41.20816918460671,53,2.4095256679217907,0.17402707568381595,43.92909908612396,0.5561372554672978,0.07263800000000001,0.000930277377990027,648.1937141335145,3.2995490750196868
1696,300L_GN_2.0_6.0_25_225_trail_9/GS_40.089_GN_56_L_300_Trail_9_orig.png,9,300,40.08918628686366,56,3.138788217542379,1.134715314019613,53.95439150528087,0.6999394630134422,0.08783,0.0015669205468051026,654.5339751136096,2.533932011811947
1697,300L_GN_2.0_6.0_25_225_trail_9/GS_40.089_GN_56_L_300_Trail_9_mirror.png,9,300,40.08918628686366,56,3.138788217542379,1.134715314019613,53.95439150528087,0.6999394630134422,0.08783,0.0015669205468051026,654.5339751136096,2.533932011811947
1698,300L_GN_2.0_6.0_25_225_trail_9/GS_40.089_GN_56_L_300_Trail_9_flip.png,9,300,40.08918628686366,56,3.138788217542379,1.134715314019613,53.95439150528087,0.6999394630134422,0.08783,0.0015669205468051026,654.5339751136096,2.533932011811947
1699,300L_GN_2.0_6.0_25_225_trail_9/GS_40.089_GN_56_L_300_Trail_9_mirror_flip.png,9,300,40.08918628686366,56,3.138788217542379,1.134715314019613,53.95439150528087,0.6999394630134422,0.08783,0.0015669205468051026,654.5339751136096,2.533932011811947
1700,300L_GN_2.0_6.0_25_225_trail_9/GS_39.392_GN_58_L_300_Trail_9_orig.png,9,300,39.391929857916764,58,3.127393927128687,0.4955310555216775,53.71396180979625,0.37392681168708786,0.089556,0.000545402603587475,638.6760208199545,1.5362413165438167
1701,300L_GN_2.0_6.0_25_225_trail_9/GS_39.392_GN_58_L_300_Trail_9_mirror.png,9,300,39.391929857916764,58,3.127393927128687,0.4955310555216775,53.71396180979625,0.37392681168708786,0.089556,0.000545402603587475,638.6760208199545,1.5362413165438167
1702,300L_GN_2.0_6.0_25_225_trail_9/GS_39.392_GN_58_L_300_Trail_9_flip.png,9,300,39.391929857916764,58,3.127393927128687,0.4955310555216775,53.71396180979625,0.37392681168708786,0.089556,0.000545402603587475,638.6760208199545,1.5362413165438167
1703,300L_GN_2.0_6.0_25_225_trail_9/GS_39.392_GN_58_L_300_Trail_9_mirror_flip.png,9,300,39.391929857916764,58,3.127393927128687,0.4955310555216775,53.71396180979625,0.37392681168708786,0.089556,0.000545402603587475,638.6760208199545,1.5362413165438167
1704,300L_GN_2.0_6.0_25_225_trail_9/GS_38.73_GN_60_L_300_Trail_9_orig.png,9,300,38.72983346207417,60,3.27339417415111,0.24322831825211566,52.33399315309801,1.2393429989513882,0.085686,0.002194945101819176,649.2408323746433,1.0013418354325712
1705,300L_GN_2.0_6.0_25_225_trail_9/GS_38.73_GN_60_L_300_Trail_9_mirror.png,9,300,38.72983346207417,60,3.27339417415111,0.24322831825211566,52.33399315309801,1.2393429989513882,0.085686,0.002194945101819176,649.2408323746433,1.0013418354325712
1706,300L_GN_2.0_6.0_25_225_trail_9/GS_38.73_GN_60_L_300_Trail_9_flip.png,9,300,38.72983346207417,60,3.27339417415111,0.24322831825211566,52.33399315309801,1.2393429989513882,0.085686,0.002194945101819176,649.2408323746433,1.0013418354325712
1707,300L_GN_2.0_6.0_25_225_trail_9/GS_38.73_GN_60_L_300_Trail_9_mirror_flip.png,9,300,38.72983346207417,60,3.27339417415111,0.24322831825211566,52.33399315309801,1.2393429989513882,0.085686,0.002194945101819176,649.2408323746433,1.0013418354325712
1708,300L_GN_2.0_6.0_25_225_trail_9/GS_38.1_GN_62_L_300_Trail_9_orig.png,9,300,38.10003810005715,62,3.553143762651156,0.6585674434587812,54.07183083760318,0.3730012113843569,0.08990200000000001,0.000685431251111299,635.960904099474,1.5811744508245005
1709,300L_GN_2.0_6.0_25_225_trail_9/GS_38.1_GN_62_L_300_Trail_9_mirror.png,9,300,38.10003810005715,62,3.553143762651156,0.6585674434587812,54.07183083760318,0.3730012113843569,0.08990200000000001,0.000685431251111299,635.960904099474,1.5811744508245005
1710,300L_GN_2.0_6.0_25_225_trail_9/GS_38.1_GN_62_L_300_Trail_9_flip.png,9,300,38.10003810005715,62,3.553143762651156,0.6585674434587812,54.07183083760318,0.3730012113843569,0.08990200000000001,0.000685431251111299,635.960904099474,1.5811744508245005
1711,300L_GN_2.0_6.0_25_225_trail_9/GS_38.1_GN_62_L_300_Trail_9_mirror_flip.png,9,300,38.10003810005715,62,3.553143762651156,0.6585674434587812,54.07183083760318,0.3730012113843569,0.08990200000000001,0.000685431251111299,635.960904099474,1.5811744508245005
1712,300L_GN_2.0_6.0_25_225_trail_9/GS_37.5_GN_64_L_300_Trail_9_orig.png,9,300,37.5,64,2.5729912691213133,0.1843241040903212,49.84500408447925,0.7619055019686402,0.080494,0.0012208783723205196,658.3425956742501,2.9085288650313723
1713,300L_GN_2.0_6.0_25_225_trail_9/GS_37.5_GN_64_L_300_Trail_9_mirror.png,9,300,37.5,64,2.5729912691213133,0.1843241040903212,49.84500408447925,0.7619055019686402,0.080494,0.0012208783723205196,658.3425956742501,2.9085288650313723
1714,300L_GN_2.0_6.0_25_225_trail_9/GS_37.5_GN_64_L_300_Trail_9_flip.png,9,300,37.5,64,2.5729912691213133,0.1843241040903212,49.84500408447925,0.7619055019686402,0.080494,0.0012208783723205196,658.3425956742501,2.9085288650313723
1715,300L_GN_2.0_6.0_25_225_trail_9/GS_37.5_GN_64_L_300_Trail_9_mirror_flip.png,9,300,37.5,64,2.5729912691213133,0.1843241040903212,49.84500408447925,0.7619055019686402,0.080494,0.0012208783723205196,658.3425956742501,2.9085288650313723
1716,300L_GN_2.0_6.0_25_225_trail_9/GS_36.927_GN_66_L_300_Trail_9_orig.png,9,300,36.927447293799815,66,2.7278872601607285,0.3637889486814951,48.30763600959118,0.8254562360540417,0.08095200000000001,0.0013601529325778044,638.1282313217332,1.6654082884367882
1717,300L_GN_2.0_6.0_25_225_trail_9/GS_36.927_GN_66_L_300_Trail_9_mirror.png,9,300,36.927447293799815,66,2.7278872601607285,0.3637889486814951,48.30763600959118,0.8254562360540417,0.08095200000000001,0.0013601529325778044,638.1282313217332,1.6654082884367882
1718,300L_GN_2.0_6.0_25_225_trail_9/GS_36.927_GN_66_L_300_Trail_9_flip.png,9,300,36.927447293799815,66,2.7278872601607285,0.3637889486814951,48.30763600959118,0.8254562360540417,0.08095200000000001,0.0013601529325778044,638.1282313217332,1.6654082884367882
1719,300L_GN_2.0_6.0_25_225_trail_9/GS_36.927_GN_66_L_300_Trail_9_mirror_flip.png,9,300,36.927447293799815,66,2.7278872601607285,0.3637889486814951,48.30763600959118,0.8254562360540417,0.08095200000000001,0.0013601529325778044,638.1282313217332,1.6654082884367882
1720,300L_GN_2.0_6.0_25_225_trail_9/GS_36.116_GN_69_L_300_Trail_9_orig.png,9,300,36.11575592573076,69,2.205935082659639,0.1061182823334985,49.669666072292685,0.5274575325228436,0.07793200000000002,0.00086191414885707,674.9157565681708,0.8819157751421024
1721,300L_GN_2.0_6.0_25_225_trail_9/GS_36.116_GN_69_L_300_Trail_9_mirror.png,9,300,36.11575592573076,69,2.205935082659639,0.1061182823334985,49.669666072292685,0.5274575325228436,0.07793200000000002,0.00086191414885707,674.9157565681708,0.8819157751421024
1722,300L_GN_2.0_6.0_25_225_trail_9/GS_36.116_GN_69_L_300_Trail_9_flip.png,9,300,36.11575592573076,69,2.205935082659639,0.1061182823334985,49.669666072292685,0.5274575325228436,0.07793200000000002,0.00086191414885707,674.9157565681708,0.8819157751421024
1723,300L_GN_2.0_6.0_25_225_trail_9/GS_36.116_GN_69_L_300_Trail_9_mirror_flip.png,9,300,36.11575592573076,69,2.205935082659639,0.1061182823334985,49.669666072292685,0.5274575325228436,0.07793200000000002,0.00086191414885707,674.9157565681708,0.8819157751421024
1724,300L_GN_2.0_6.0_25_225_trail_9/GS_34.874_GN_74_L_300_Trail_9_orig.png,9,300,34.87429162314579,74,2.9119038515499645,0.30886983649717437,48.758855123670244,0.5689581427436513,0.07867199999999999,0.0006322467872595361,654.174055559972,1.1658737158056998
1725,300L_GN_2.0_6.0_25_225_trail_9/GS_34.874_GN_74_L_300_Trail_9_mirror.png,9,300,34.87429162314579,74,2.9119038515499645,0.30886983649717437,48.758855123670244,0.5689581427436513,0.07867199999999999,0.0006322467872595361,654.174055559972,1.1658737158056998
1726,300L_GN_2.0_6.0_25_225_trail_9/GS_34.874_GN_74_L_300_Trail_9_flip.png,9,300,34.87429162314579,74,2.9119038515499645,0.30886983649717437,48.758855123670244,0.5689581427436513,0.07867199999999999,0.0006322467872595361,654.174055559972,1.1658737158056998
1727,300L_GN_2.0_6.0_25_225_trail_9/GS_34.874_GN_74_L_300_Trail_9_mirror_flip.png,9,300,34.87429162314579,74,2.9119038515499645,0.30886983649717437,48.758855123670244,0.5689581427436513,0.07867199999999999,0.0006322467872595361,654.174055559972,1.1658737158056998
1728,300L_GN_2.0_6.0_25_225_trail_9/GS_33.968_GN_78_L_300_Trail_9_orig.png,9,300,33.96831102433787,78,3.2503150031741237,0.22468208767104922,45.45192618228234,2.1674917563835776,0.075848,0.0034056212355457285,626.9110469849096,1.4805093141807273
1729,300L_GN_2.0_6.0_25_225_trail_9/GS_33.968_GN_78_L_300_Trail_9_mirror.png,9,300,33.96831102433787,78,3.2503150031741237,0.22468208767104922,45.45192618228234,2.1674917563835776,0.075848,0.0034056212355457285,626.9110469849096,1.4805093141807273
1730,300L_GN_2.0_6.0_25_225_trail_9/GS_33.968_GN_78_L_300_Trail_9_flip.png,9,300,33.96831102433787,78,3.2503150031741237,0.22468208767104922,45.45192618228234,2.1674917563835776,0.075848,0.0034056212355457285,626.9110469849096,1.4805093141807273
1731,300L_GN_2.0_6.0_25_225_trail_9/GS_33.968_GN_78_L_300_Trail_9_mirror_flip.png,9,300,33.96831102433787,78,3.2503150031741237,0.22468208767104922,45.45192618228234,2.1674917563835776,0.075848,0.0034056212355457285,626.9110469849096,1.4805093141807273
1732,300L_GN_2.0_6.0_25_225_trail_9/GS_33.129_GN_82_L_300_Trail_9_orig.png,9,300,33.12945782245396,82,2.8442541872013485,0.4115289260886816,48.64833163861771,1.3500479650990724,0.07986800000000001,0.0019288068850976245,640.6771252953288,1.5442042725363023
1733,300L_GN_2.0_6.0_25_225_trail_9/GS_33.129_GN_82_L_300_Trail_9_mirror.png,9,300,33.12945782245396,82,2.8442541872013485,0.4115289260886816,48.64833163861771,1.3500479650990724,0.07986800000000001,0.0019288068850976245,640.6771252953288,1.5442042725363023
1734,300L_GN_2.0_6.0_25_225_trail_9/GS_33.129_GN_82_L_300_Trail_9_flip.png,9,300,33.12945782245396,82,2.8442541872013485,0.4115289260886816,48.64833163861771,1.3500479650990724,0.07986800000000001,0.0019288068850976245,640.6771252953288,1.5442042725363023
1735,300L_GN_2.0_6.0_25_225_trail_9/GS_33.129_GN_82_L_300_Trail_9_mirror_flip.png,9,300,33.12945782245396,82,2.8442541872013485,0.4115289260886816,48.64833163861771,1.3500479650990724,0.07986800000000001,0.0019288068850976245,640.6771252953288,1.5442042725363023
1736,300L_GN_2.0_6.0_25_225_trail_9/GS_32.163_GN_87_L_300_Trail_9_orig.png,9,300,32.163376045133845,87,3.720690224786041,0.17782740198865638,50.68963751029123,0.6445992105929379,0.08375600000000001,0.0010004918790275086,637.674907257952,3.4676387401815996
1737,300L_GN_2.0_6.0_25_225_trail_9/GS_32.163_GN_87_L_300_Trail_9_mirror.png,9,300,32.163376045133845,87,3.720690224786041,0.17782740198865638,50.68963751029123,0.6445992105929379,0.08375600000000001,0.0010004918790275086,637.674907257952,3.4676387401815996
1738,300L_GN_2.0_6.0_25_225_trail_9/GS_32.163_GN_87_L_300_Trail_9_flip.png,9,300,32.163376045133845,87,3.720690224786041,0.17782740198865638,50.68963751029123,0.6445992105929379,0.08375600000000001,0.0010004918790275086,637.674907257952,3.4676387401815996
1739,300L_GN_2.0_6.0_25_225_trail_9/GS_32.163_GN_87_L_300_Trail_9_mirror_flip.png,9,300,32.163376045133845,87,3.720690224786041,0.17782740198865638,50.68963751029123,0.6445992105929379,0.08375600000000001,0.0010004918790275086,637.674907257952,3.4676387401815996
1740,300L_GN_2.0_6.0_25_225_trail_9/GS_31.449_GN_91_L_300_Trail_9_orig.png,9,300,31.44854510165755,91,3.224863177933687,0.24881180617002407,50.090097664331,0.9312775294927876,0.085338,0.0014328489103879747,614.9491922806544,1.6578093981800353
1741,300L_GN_2.0_6.0_25_225_trail_9/GS_31.449_GN_91_L_300_Trail_9_mirror.png,9,300,31.44854510165755,91,3.224863177933687,0.24881180617002407,50.090097664331,0.9312775294927876,0.085338,0.0014328489103879747,614.9491922806544,1.6578093981800353
1742,300L_GN_2.0_6.0_25_225_trail_9/GS_31.449_GN_91_L_300_Trail_9_flip.png,9,300,31.44854510165755,91,3.224863177933687,0.24881180617002407,50.090097664331,0.9312775294927876,0.085338,0.0014328489103879747,614.9491922806544,1.6578093981800353
1743,300L_GN_2.0_6.0_25_225_trail_9/GS_31.449_GN_91_L_300_Trail_9_mirror_flip.png,9,300,31.44854510165755,91,3.224863177933687,0.24881180617002407,50.090097664331,0.9312775294927876,0.085338,0.0014328489103879747,614.9491922806544,1.6578093981800353
1744,300L_GN_2.0_6.0_25_225_trail_9/GS_30.779_GN_95_L_300_Trail_9_orig.png,9,300,30.779350562554626,95,2.3033296843794733,0.2901635763110553,52.02096717304661,0.828021376536912,0.08692599999999999,0.0015457244256334962,620.9702112170006,3.1614533511730887
1745,300L_GN_2.0_6.0_25_225_trail_9/GS_30.779_GN_95_L_300_Trail_9_mirror.png,9,300,30.779350562554626,95,2.3033296843794733,0.2901635763110553,52.02096717304661,0.828021376536912,0.08692599999999999,0.0015457244256334962,620.9702112170006,3.1614533511730887
1746,300L_GN_2.0_6.0_25_225_trail_9/GS_30.779_GN_95_L_300_Trail_9_flip.png,9,300,30.779350562554626,95,2.3033296843794733,0.2901635763110553,52.02096717304661,0.828021376536912,0.08692599999999999,0.0015457244256334962,620.9702112170006,3.1614533511730887
1747,300L_GN_2.0_6.0_25_225_trail_9/GS_30.779_GN_95_L_300_Trail_9_mirror_flip.png,9,300,30.779350562554626,95,2.3033296843794733,0.2901635763110553,52.02096717304661,0.828021376536912,0.08692599999999999,0.0015457244256334962,620.9702112170006,3.1614533511730887
1748,300L_GN_2.0_6.0_25_225_trail_9/GS_30.0_GN_100_L_300_Trail_9_orig.png,9,300,30.0,100,3.564541051976858,0.25190121438802193,50.664079925114414,0.7529693313771569,0.08390600000000001,0.0011400631561453076,632.4772993101068,1.6163012908596937
1749,300L_GN_2.0_6.0_25_225_trail_9/GS_30.0_GN_100_L_300_Trail_9_mirror.png,9,300,30.0,100,3.564541051976858,0.25190121438802193,50.664079925114414,0.7529693313771569,0.08390600000000001,0.0011400631561453076,632.4772993101068,1.6163012908596937
1750,300L_GN_2.0_6.0_25_225_trail_9/GS_30.0_GN_100_L_300_Trail_9_flip.png,9,300,30.0,100,3.564541051976858,0.25190121438802193,50.664079925114414,0.7529693313771569,0.08390600000000001,0.0011400631561453076,632.4772993101068,1.6163012908596937
1751,300L_GN_2.0_6.0_25_225_trail_9/GS_30.0_GN_100_L_300_Trail_9_mirror_flip.png,9,300,30.0,100,3.564541051976858,0.25190121438802193,50.664079925114414,0.7529693313771569,0.08390600000000001,0.0011400631561453076,632.4772993101068,1.6163012908596937
1752,300L_GN_2.0_6.0_25_225_trail_9/GS_29.139_GN_106_L_300_Trail_9_orig.png,9,300,29.138575870717926,106,2.5746137155318296,0.21655552918439322,49.366105933765866,0.6297856102220134,0.082982,0.0010316666128163652,616.5990580639673,2.7358858531792314
1753,300L_GN_2.0_6.0_25_225_trail_9/GS_29.139_GN_106_L_300_Trail_9_mirror.png,9,300,29.138575870717926,106,2.5746137155318296,0.21655552918439322,49.366105933765866,0.6297856102220134,0.082982,0.0010316666128163652,616.5990580639673,2.7358858531792314
1754,300L_GN_2.0_6.0_25_225_trail_9/GS_29.139_GN_106_L_300_Trail_9_flip.png,9,300,29.138575870717926,106,2.5746137155318296,0.21655552918439322,49.366105933765866,0.6297856102220134,0.082982,0.0010316666128163652,616.5990580639673,2.7358858531792314
1755,300L_GN_2.0_6.0_25_225_trail_9/GS_29.139_GN_106_L_300_Trail_9_mirror_flip.png,9,300,29.138575870717926,106,2.5746137155318296,0.21655552918439322,49.366105933765866,0.6297856102220134,0.082982,0.0010316666128163652,616.5990580639673,2.7358858531792314
1756,300L_GN_2.0_6.0_25_225_trail_9/GS_28.347_GN_112_L_300_Trail_9_orig.png,9,300,28.34733547569204,112,2.9964086572397997,0.33068782428529897,49.22658687773206,1.8528027826845943,0.082644,0.0032675042463629635,621.4878614308805,1.837308682108561
1757,300L_GN_2.0_6.0_25_225_trail_9/GS_28.347_GN_112_L_300_Trail_9_mirror.png,9,300,28.34733547569204,112,2.9964086572397997,0.33068782428529897,49.22658687773206,1.8528027826845943,0.082644,0.0032675042463629635,621.4878614308805,1.837308682108561
1758,300L_GN_2.0_6.0_25_225_trail_9/GS_28.347_GN_112_L_300_Trail_9_flip.png,9,300,28.34733547569204,112,2.9964086572397997,0.33068782428529897,49.22658687773206,1.8528027826845943,0.082644,0.0032675042463629635,621.4878614308805,1.837308682108561
1759,300L_GN_2.0_6.0_25_225_trail_9/GS_28.347_GN_112_L_300_Trail_9_mirror_flip.png,9,300,28.34733547569204,112,2.9964086572397997,0.33068782428529897,49.22658687773206,1.8528027826845943,0.082644,0.0032675042463629635,621.4878614308805,1.837308682108561
1760,300L_GN_2.0_6.0_25_225_trail_9/GS_27.501_GN_119_L_300_Trail_9_orig.png,9,300,27.50095491084634,119,2.717594167079099,0.07263313339989266,49.407101413969635,0.4956511258799445,0.08085400000000001,0.000986379237413282,632.3139858418779,1.0016053731926848
1761,300L_GN_2.0_6.0_25_225_trail_9/GS_27.501_GN_119_L_300_Trail_9_mirror.png,9,300,27.50095491084634,119,2.717594167079099,0.07263313339989266,49.407101413969635,0.4956511258799445,0.08085400000000001,0.000986379237413282,632.3139858418779,1.0016053731926848
1762,300L_GN_2.0_6.0_25_225_trail_9/GS_27.501_GN_119_L_300_Trail_9_flip.png,9,300,27.50095491084634,119,2.717594167079099,0.07263313339989266,49.407101413969635,0.4956511258799445,0.08085400000000001,0.000986379237413282,632.3139858418779,1.0016053731926848
1763,300L_GN_2.0_6.0_25_225_trail_9/GS_27.501_GN_119_L_300_Trail_9_mirror_flip.png,9,300,27.50095491084634,119,2.717594167079099,0.07263313339989266,49.407101413969635,0.4956511258799445,0.08085400000000001,0.000986379237413282,632.3139858418779,1.0016053731926848
1764,300L_GN_2.0_6.0_25_225_trail_9/GS_26.726_GN_126_L_300_Trail_9_orig.png,9,300,26.726124191242437,126,2.607041774216255,0.24863565573611354,43.33995308606087,1.7618874630643715,0.074576,0.003182078565969109,597.6269958280595,2.831488426598889
1765,300L_GN_2.0_6.0_25_225_trail_9/GS_26.726_GN_126_L_300_Trail_9_mirror.png,9,300,26.726124191242437,126,2.607041774216255,0.24863565573611354,43.33995308606087,1.7618874630643715,0.074576,0.003182078565969109,597.6269958280595,2.831488426598889
1766,300L_GN_2.0_6.0_25_225_trail_9/GS_26.726_GN_126_L_300_Trail_9_flip.png,9,300,26.726124191242437,126,2.607041774216255,0.24863565573611354,43.33995308606087,1.7618874630643715,0.074576,0.003182078565969109,597.6269958280595,2.831488426598889
1767,300L_GN_2.0_6.0_25_225_trail_9/GS_26.726_GN_126_L_300_Trail_9_mirror_flip.png,9,300,26.726124191242437,126,2.607041774216255,0.24863565573611354,43.33995308606087,1.7618874630643715,0.074576,0.003182078565969109,597.6269958280595,2.831488426598889
1768,300L_GN_2.0_6.0_25_225_trail_9/GS_26.112_GN_132_L_300_Trail_9_orig.png,9,300,26.111648393354677,132,2.684420901793164,0.6175151519868001,46.98259505553331,0.9056110744681449,0.082044,0.0014878387009350195,591.9426237959731,1.4344321050323194
1769,300L_GN_2.0_6.0_25_225_trail_9/GS_26.112_GN_132_L_300_Trail_9_mirror.png,9,300,26.111648393354677,132,2.684420901793164,0.6175151519868001,46.98259505553331,0.9056110744681449,0.082044,0.0014878387009350195,591.9426237959731,1.4344321050323194
1770,300L_GN_2.0_6.0_25_225_trail_9/GS_26.112_GN_132_L_300_Trail_9_flip.png,9,300,26.111648393354677,132,2.684420901793164,0.6175151519868001,46.98259505553331,0.9056110744681449,0.082044,0.0014878387009350195,591.9426237959731,1.4344321050323194
1771,300L_GN_2.0_6.0_25_225_trail_9/GS_26.112_GN_132_L_300_Trail_9_mirror_flip.png,9,300,26.111648393354677,132,2.684420901793164,0.6175151519868001,46.98259505553331,0.9056110744681449,0.082044,0.0014878387009350195,591.9426237959731,1.4344321050323194
1772,300L_GN_2.0_6.0_25_225_trail_9/GS_25.0_GN_144_L_300_Trail_9_orig.png,9,300,25.0,144,2.717681728537638,0.25198308137810044,46.10026759090688,0.9350226399783694,0.079666,0.0016833846856853577,599.6795964034139,0.8798942417075802
1773,300L_GN_2.0_6.0_25_225_trail_9/GS_25.0_GN_144_L_300_Trail_9_mirror.png,9,300,25.0,144,2.717681728537638,0.25198308137810044,46.10026759090688,0.9350226399783694,0.079666,0.0016833846856853577,599.6795964034139,0.8798942417075802
1774,300L_GN_2.0_6.0_25_225_trail_9/GS_25.0_GN_144_L_300_Trail_9_flip.png,9,300,25.0,144,2.717681728537638,0.25198308137810044,46.10026759090688,0.9350226399783694,0.079666,0.0016833846856853577,599.6795964034139,0.8798942417075802
1775,300L_GN_2.0_6.0_25_225_trail_9/GS_25.0_GN_144_L_300_Trail_9_mirror_flip.png,9,300,25.0,144,2.717681728537638,0.25198308137810044,46.10026759090688,0.9350226399783694,0.079666,0.0016833846856853577,599.6795964034139,0.8798942417075802
1776,300L_GN_2.0_6.0_25_225_trail_9/GS_24.333_GN_152_L_300_Trail_9_orig.png,9,300,24.333213169614382,152,2.8997343243968725,0.5034574837003578,47.81022255187298,1.0704886215161797,0.08257600000000001,0.0022441711164704007,590.8724453505654,1.671903162346307
1777,300L_GN_2.0_6.0_25_225_trail_9/GS_24.333_GN_152_L_300_Trail_9_mirror.png,9,300,24.333213169614382,152,2.8997343243968725,0.5034574837003578,47.81022255187298,1.0704886215161797,0.08257600000000001,0.0022441711164704007,590.8724453505654,1.671903162346307
1778,300L_GN_2.0_6.0_25_225_trail_9/GS_24.333_GN_152_L_300_Trail_9_flip.png,9,300,24.333213169614382,152,2.8997343243968725,0.5034574837003578,47.81022255187298,1.0704886215161797,0.08257600000000001,0.0022441711164704007,590.8724453505654,1.671903162346307
1779,300L_GN_2.0_6.0_25_225_trail_9/GS_24.333_GN_152_L_300_Trail_9_mirror_flip.png,9,300,24.333213169614382,152,2.8997343243968725,0.5034574837003578,47.81022255187298,1.0704886215161797,0.08257600000000001,0.0022441711164704007,590.8724453505654,1.671903162346307
1780,300L_GN_2.0_6.0_25_225_trail_9/GS_23.717_GN_160_L_300_Trail_9_orig.png,9,300,23.717082451262844,160,1.7170649946484005,0.33498996449302065,53.248316720567914,0.6345961299904719,0.092088,0.0009630659375141465,597.0976200422667,2.2116830066847237
1781,300L_GN_2.0_6.0_25_225_trail_9/GS_23.717_GN_160_L_300_Trail_9_mirror.png,9,300,23.717082451262844,160,1.7170649946484005,0.33498996449302065,53.248316720567914,0.6345961299904719,0.092088,0.0009630659375141465,597.0976200422667,2.2116830066847237
1782,300L_GN_2.0_6.0_25_225_trail_9/GS_23.717_GN_160_L_300_Trail_9_flip.png,9,300,23.717082451262844,160,1.7170649946484005,0.33498996449302065,53.248316720567914,0.6345961299904719,0.092088,0.0009630659375141465,597.0976200422667,2.2116830066847237
1783,300L_GN_2.0_6.0_25_225_trail_9/GS_23.717_GN_160_L_300_Trail_9_mirror_flip.png,9,300,23.717082451262844,160,1.7170649946484005,0.33498996449302065,53.248316720567914,0.6345961299904719,0.092088,0.0009630659375141465,597.0976200422667,2.2116830066847237
1784,300L_GN_2.0_6.0_25_225_trail_9/GS_23.146_GN_168_L_300_Trail_9_orig.png,9,300,23.145502494313785,168,1.922944568506825,0.09624154120720838,44.0837965134824,1.3346909052823437,0.078686,0.0017532894798064566,584.7271555517486,2.9255267334312878
1785,300L_GN_2.0_6.0_25_225_trail_9/GS_23.146_GN_168_L_300_Trail_9_mirror.png,9,300,23.145502494313785,168,1.922944568506825,0.09624154120720838,44.0837965134824,1.3346909052823437,0.078686,0.0017532894798064566,584.7271555517486,2.9255267334312878
1786,300L_GN_2.0_6.0_25_225_trail_9/GS_23.146_GN_168_L_300_Trail_9_flip.png,9,300,23.145502494313785,168,1.922944568506825,0.09624154120720838,44.0837965134824,1.3346909052823437,0.078686,0.0017532894798064566,584.7271555517486,2.9255267334312878
1787,300L_GN_2.0_6.0_25_225_trail_9/GS_23.146_GN_168_L_300_Trail_9_mirror_flip.png,9,300,23.145502494313785,168,1.922944568506825,0.09624154120720838,44.0837965134824,1.3346909052823437,0.078686,0.0017532894798064566,584.7271555517486,2.9255267334312878
1788,300L_GN_2.0_6.0_25_225_trail_9/GS_22.486_GN_178_L_300_Trail_9_orig.png,9,300,22.48595066987584,178,3.0452458643313336,0.42429985280791926,50.34972048442033,0.8552957278866067,0.08836000000000001,0.001528541788764704,577.9416438150946,3.0785834528363556
1789,300L_GN_2.0_6.0_25_225_trail_9/GS_22.486_GN_178_L_300_Trail_9_mirror.png,9,300,22.48595066987584,178,3.0452458643313336,0.42429985280791926,50.34972048442033,0.8552957278866067,0.08836000000000001,0.001528541788764704,577.9416438150946,3.0785834528363556
1790,300L_GN_2.0_6.0_25_225_trail_9/GS_22.486_GN_178_L_300_Trail_9_flip.png,9,300,22.48595066987584,178,3.0452458643313336,0.42429985280791926,50.34972048442033,0.8552957278866067,0.08836000000000001,0.001528541788764704,577.9416438150946,3.0785834528363556
1791,300L_GN_2.0_6.0_25_225_trail_9/GS_22.486_GN_178_L_300_Trail_9_mirror_flip.png,9,300,22.48595066987584,178,3.0452458643313336,0.42429985280791926,50.34972048442033,0.8552957278866067,0.08836000000000001,0.001528541788764704,577.9416438150946,3.0785834528363556
1792,300L_GN_2.0_6.0_25_225_trail_9/GS_21.213_GN_200_L_300_Trail_9_orig.png,9,300,21.213203435596427,200,2.807973613477948,0.4933439462969256,51.057000493591275,0.9080211549172647,0.08993599999999999,0.0015649741211917853,585.3954078303818,1.45802038946181
1793,300L_GN_2.0_6.0_25_225_trail_9/GS_21.213_GN_200_L_300_Trail_9_mirror.png,9,300,21.213203435596427,200,2.807973613477948,0.4933439462969256,51.057000493591275,0.9080211549172647,0.08993599999999999,0.0015649741211917853,585.3954078303818,1.45802038946181
1794,300L_GN_2.0_6.0_25_225_trail_9/GS_21.213_GN_200_L_300_Trail_9_flip.png,9,300,21.213203435596427,200,2.807973613477948,0.4933439462969256,51.057000493591275,0.9080211549172647,0.08993599999999999,0.0015649741211917853,585.3954078303818,1.45802038946181
1795,300L_GN_2.0_6.0_25_225_trail_9/GS_21.213_GN_200_L_300_Trail_9_mirror_flip.png,9,300,21.213203435596427,200,2.807973613477948,0.4933439462969256,51.057000493591275,0.9080211549172647,0.08993599999999999,0.0015649741211917853,585.3954078303818,1.45802038946181
1796,300L_GN_2.0_6.0_25_225_trail_9/GS_20.0_GN_225_L_300_Trail_9_orig.png,9,300,20.0,225,0.5947893985227471,0.37093405233011106,52.32661052273405,0.3153855132823588,0.09435000000000002,0.0006594846472814982,560.9101270710122,1.776496013090719
1797,300L_GN_2.0_6.0_25_225_trail_9/GS_20.0_GN_225_L_300_Trail_9_mirror.png,9,300,20.0,225,0.5947893985227471,0.37093405233011106,52.32661052273405,0.3153855132823588,0.09435000000000002,0.0006594846472814982,560.9101270710122,1.776496013090719
1798,300L_GN_2.0_6.0_25_225_trail_9/GS_20.0_GN_225_L_300_Trail_9_flip.png,9,300,20.0,225,0.5947893985227471,0.37093405233011106,52.32661052273405,0.3153855132823588,0.09435000000000002,0.0006594846472814982,560.9101270710122,1.776496013090719
1799,300L_GN_2.0_6.0_25_225_trail_9/GS_20.0_GN_225_L_300_Trail_9_mirror_flip.png,9,300,20.0,225,0.5947893985227471,0.37093405233011106,52.32661052273405,0.3153855132823588,0.09435000000000002,0.0006594846472814982,560.9101270710122,1.776496013090719
